data_crystal_2_(test2)_290k
_audit_creation_date              2017-06-02
_audit_creation_method
;
Olex2 1.2
(compiled Mar 28 2017 19:26:29 for OlexSys, GUI svn.r5337)
;
_shelx_SHELXL_version_number      '2014/7'
_publ_contact_author_address      ?
_publ_contact_author_email        ?
_publ_contact_author_id_orcid     ?
_publ_contact_author_name         ''
_publ_contact_author_phone        ?
_publ_section_references
;
Dolomanov, O.V., Bourhis, L.J., Gildea, R.J, Howard, J.A.K. & Puschmann, H.
 (2009), J. Appl. Cryst. 42, 339-341.

Sheldrick, G.M. (2015). Acta Cryst. A71, 3-8.

Sheldrick, G.M. (2015). Acta Cryst. C71, 3-8.
;
_chemical_name_common             ?
_chemical_name_systematic         ?
_chemical_formula_moiety          'C10 H10 Fe'
_chemical_formula_sum             'C10 H10 Fe'
_chemical_formula_weight          186.03
_chemical_melting_point           ?
_chemical_oxdiff_formula          'Fe (C5 H5)2'
_chemical_oxdiff_usercomment      'Quality control 2016-09-07'
loop_
  _atom_type_symbol
  _atom_type_description
  _atom_type_scat_dispersion_real
  _atom_type_scat_dispersion_imag
  _atom_type_scat_source
 'C' 'C' 0.0030 0.0020 'International Tables Vol C Tables 4.2.6.8 and 6.1.1.4'
 'H' 'H' 0.0000 0.0000 'International Tables Vol C Tables 4.2.6.8 and 6.1.1.4'
 'Fe' 'Fe' 0.3550 0.8220 'International Tables Vol C Tables 4.2.6.8 and 6.1.1.4'

_shelx_space_group_comment
;
The symmetry employed for this shelxl refinement is uniquely defined
by the following loop, which should always be used as a source of
symmetry information in preference to the above space-group names.
They are only intended as comments.
;
_space_group_crystal_system       'monoclinic'
_space_group_IT_number            14
_space_group_name_H-M_alt         'P 1 21/n 1'
_space_group_name_Hall            '-P 2yn'
loop_
  _space_group_symop_operation_xyz
 'x, y, z'
 '-x+1/2, y+1/2, -z+1/2'
 '-x, -y, -z'
 'x-1/2, -y-1/2, z-1/2'

_cell_length_a                    5.92850(10)
_cell_length_b                    7.61200(10)
_cell_length_c                    9.04100(10)
_cell_angle_alpha                 90
_cell_angle_beta                  93.1560(10)
_cell_angle_gamma                 90
_cell_volume                      407.381(10)
_cell_formula_units_Z             2
_cell_measurement_reflns_used     2365
_cell_measurement_temperature     293(2)
_cell_measurement_theta_max       32.1540
_cell_measurement_theta_min       2.6210
_shelx_estimated_absorpt_T_max    ?
_shelx_estimated_absorpt_T_min    ?
_exptl_absorpt_coefficient_mu     1.693
_exptl_absorpt_correction_T_max   1.00000
_exptl_absorpt_correction_T_min   0.34074
_exptl_absorpt_correction_type    multi-scan
_exptl_absorpt_process_details
;
CrysAlisPro 1.171.38.41 (Rigaku Oxford Diffraction, 2015)
Empirical absorption correction using spherical harmonics,
 implemented in SCALE3 ABSPACK scaling algorithm.
;
_exptl_absorpt_special_details    ?
_exptl_crystal_colour             ?
_exptl_crystal_density_diffrn     1.517
_exptl_crystal_density_meas       ?
_exptl_crystal_density_method     ?
_exptl_crystal_description        ?
_exptl_crystal_F_000              192
_exptl_crystal_size_max           ?
_exptl_crystal_size_mid           ?
_exptl_crystal_size_min           ?
_exptl_transmission_factor_max    ?
_exptl_transmission_factor_min    ?
_diffrn_reflns_av_R_equivalents   0.0115
_diffrn_reflns_av_unetI/netI      0.0112
_diffrn_reflns_Laue_measured_fraction_full 0.925
_diffrn_reflns_Laue_measured_fraction_max 0.748
_diffrn_reflns_limit_h_max        8
_diffrn_reflns_limit_h_min        -8
_diffrn_reflns_limit_k_max        11
_diffrn_reflns_limit_k_min        -11
_diffrn_reflns_limit_l_max        10
_diffrn_reflns_limit_l_min        -10
_diffrn_reflns_number             3357
_diffrn_reflns_point_group_measured_fraction_full 0.925
_diffrn_reflns_point_group_measured_fraction_max 0.748
_diffrn_reflns_theta_full         24.760
_diffrn_reflns_theta_max          32.155
_diffrn_reflns_theta_min          3.438
_diffrn_ambient_temperature       293(2)
_diffrn_detector                  'CCD plate'
_diffrn_detector_area_resol_mean  ?
_diffrn_measured_fraction_theta_full 0.925
_diffrn_measured_fraction_theta_max 0.748
_diffrn_measurement_details
;
List of Runs (angles in degrees, time in seconds):

  # Type    Start    End  Width  t~exp~   \w     \q     \k     \f   Frames
--------------------------------------------------------------------------
  1  \f      0.00 360.00   0.10    0.25   0.00   0.00   0.00    --  3600
;
_diffrn_measurement_device        'abstract diffractometer'
_diffrn_measurement_device_type
'dectris-CrysAlisPro-abstract goniometer imported dectris images'
_diffrn_measurement_method        '\f scans'
_diffrn_orient_matrix_type
'CrysAlisPro convention (1999,Acta A55,543-557)'
_diffrn_orient_matrix_UB_11       -0.0343881000
_diffrn_orient_matrix_UB_12       -0.0865953000
_diffrn_orient_matrix_UB_13       0.0104708000
_diffrn_orient_matrix_UB_21       0.1037866000
_diffrn_orient_matrix_UB_22       -0.0186027000
_diffrn_orient_matrix_UB_23       0.0368746000
_diffrn_orient_matrix_UB_31       -0.0441585000
_diffrn_orient_matrix_UB_32       0.0237308000
_diffrn_orient_matrix_UB_33       0.0671669000
_diffrn_radiation_monochromator   synchrotron
_diffrn_radiation_probe           x-ray
_diffrn_radiation_type            synchrotron
_diffrn_radiation_wavelength      0.69804
_diffrn_source                    synchrotron
_reflns_Friedel_coverage          0.000
_reflns_Friedel_fraction_full     .
_reflns_Friedel_fraction_max      .
_reflns_number_gt                 1046
_reflns_number_total              1126
_reflns_odcompleteness_completeness 73.83
_reflns_odcompleteness_iscentric  1
_reflns_odcompleteness_theta      32.16
_reflns_special_details
;
 Reflections were merged by SHELXL according to the crystal
 class for the calculation of statistics and refinement.
 
 _reflns_Friedel_fraction is defined as the number of unique
 Friedel pairs measured divided by the number that would be
 possible theoretically, ignoring centric projections and
 systematic absences.
;
_reflns_threshold_expression      'I > 2\s(I)'
_computing_cell_refinement        'CrysAlisPro 1.171.38.41 (Rigaku OD, 2015)'
_computing_data_collection        'CrysAlisPro 1.171.38.41 (Rigaku OD, 2015)'
_computing_data_reduction         'CrysAlisPro 1.171.38.41 (Rigaku OD, 2015)'
_computing_molecular_graphics     'Olex2 (Dolomanov et al., 2009)'
_computing_publication_material   'Olex2 (Dolomanov et al., 2009)'
_computing_structure_refinement   'ShelXL (Sheldrick, 2015)'
_computing_structure_solution     'ShelXT (Sheldrick, 2015)'
_refine_diff_density_max          0.599
_refine_diff_density_min          -0.670
_refine_diff_density_rms          0.107
_refine_ls_extinction_coef        .
_refine_ls_extinction_method      none
_refine_ls_goodness_of_fit_ref    1.134
_refine_ls_hydrogen_treatment     constr
_refine_ls_matrix_type            full
_refine_ls_number_parameters      52
_refine_ls_number_reflns          1126
_refine_ls_number_restraints      0
_refine_ls_R_factor_all           0.0541
_refine_ls_R_factor_gt            0.0527
_refine_ls_restrained_S_all       1.134
_refine_ls_shift/su_max           0.000
_refine_ls_shift/su_mean          0.000
_refine_ls_structure_factor_coef  Fsqd
_refine_ls_weighting_details
'w=1/[\s^2^(Fo^2^)+(0.0950P)^2^+0.1780P] where P=(Fo^2^+2Fc^2^)/3'
_refine_ls_weighting_scheme       calc
_refine_ls_wR_factor_gt           0.1611
_refine_ls_wR_factor_ref          0.1629
_refine_special_details           ?
_olex2_refinement_description
;
1. Fixed Uiso
 At 1.2 times of:
  All C(H) groups
2.a Ternary CH refined with riding coordinates:
 C005(H005), C006(H006)
2.b Aromatic/amide H refined with riding coordinates:
 C002(H002), C003(H003), C004(H004)
;
_atom_sites_solution_hydrogens    geom
_atom_sites_solution_primary      dual
_atom_sites_solution_secondary    ?
loop_
  _atom_site_label
  _atom_site_type_symbol
  _atom_site_fract_x
  _atom_site_fract_y
  _atom_site_fract_z
  _atom_site_U_iso_or_equiv
  _atom_site_adp_type
  _atom_site_occupancy
  _atom_site_site_symmetry_order
  _atom_site_calc_flag
  _atom_site_refinement_flags_posn
  _atom_site_refinement_flags_adp
  _atom_site_refinement_flags_occupancy
  _atom_site_disorder_assembly
  _atom_site_disorder_group
 Fe01 Fe 0.5000 0.5000 0.5000 0.0463(3) Uani 1 2 d S T P . .
 C002 C 0.7554(6) 0.6744(5) 0.5431(5) 0.0777(10) Uani 1 1 d . . . . .
 H002 H 0.8802 0.6901 0.4865 0.093 Uiso 1 1 calc R . . . .
 C003 C 0.7471(7) 0.5654(6) 0.6567(5) 0.0779(10) Uani 1 1 d . . . . .
 H003 H 0.8668 0.4942 0.6900 0.093 Uiso 1 1 calc R . . . .
 C004 C 0.5510(10) 0.5692(7) 0.7170(5) 0.0937(14) Uani 1 1 d . . . . .
 H004 H 0.5097 0.5037 0.7981 0.112 Uiso 1 1 calc R . . . .
 C005 C 0.5546(9) 0.7606(4) 0.5208(5) 0.0904(15) Uani 1 1 d . . . . .
 H005 H 0.5182 0.8507 0.4458 0.108 Uiso 1 1 calc R . . . .
 C006 C 0.4076(6) 0.6972(8) 0.6318(8) 0.129(3) Uani 1 1 d . . . . .
 H006 H 0.2547 0.7367 0.6511 0.155 Uiso 1 1 calc R . . . .

loop_
  _atom_site_aniso_label
  _atom_site_aniso_U_11
  _atom_site_aniso_U_22
  _atom_site_aniso_U_33
  _atom_site_aniso_U_23
  _atom_site_aniso_U_13
  _atom_site_aniso_U_12
 Fe01 0.0525(4) 0.0387(3) 0.0474(5) -0.00678(14) -0.0016(3) -0.00145(13)
 C002 0.0754(19) 0.075(2) 0.083(2) -0.0198(18) 0.0019(17) -0.0238(15)
 C003 0.087(2) 0.075(2) 0.069(2) -0.0178(19) -0.0248(18) 0.0050(18)
 C004 0.145(4) 0.083(3) 0.054(2) -0.0201(19) 0.014(2) -0.039(3)
 C005 0.144(4) 0.0390(13) 0.083(3) -0.0087(13) -0.040(3) 0.0031(17)
 C006 0.0593(17) 0.139(4) 0.187(6) -0.128(5) -0.001(3) 0.009(2)

_geom_special_details
;
 All esds (except the esd in the dihedral angle between two l.s. planes)
 are estimated using the full covariance matrix.  The cell esds are taken
 into account individually in the estimation of esds in distances, angles
 and torsion angles; correlations between esds in cell parameters are only
 used when they are defined by crystal symmetry.  An approximate (isotropic)
 treatment of cell esds is used for estimating esds involving l.s. planes.
;
loop_
  _geom_bond_atom_site_label_1
  _geom_bond_atom_site_label_2
  _geom_bond_distance
  _geom_bond_site_symmetry_2
  _geom_bond_publ_flag
 Fe01 C002 2.035(3) 3_666 ?
 Fe01 C002 2.035(3) . ?
 Fe01 C003 2.043(3) 3_666 ?
 Fe01 C003 2.043(3) . ?
 Fe01 C004 2.038(4) 3_666 ?
 Fe01 C004 2.038(4) . ?
 Fe01 C005 2.017(3) 3_666 ?
 Fe01 C005 2.017(3) . ?
 Fe01 C006 2.011(3) . ?
 Fe01 C006 2.011(3) 3_666 ?
 C002 H002 0.9300 . ?
 C002 C003 1.324(6) . ?
 C002 C005 1.364(6) . ?
 C003 H003 0.9300 . ?
 C003 C004 1.311(7) . ?
 C004 H004 0.9300 . ?
 C004 C006 1.481(8) . ?
 C005 H005 0.9800 . ?
 C005 C006 1.448(7) . ?
 C006 H006 0.9800 . ?

loop_
  _geom_angle_atom_site_label_1
  _geom_angle_atom_site_label_2
  _geom_angle_atom_site_label_3
  _geom_angle
  _geom_angle_site_symmetry_1
  _geom_angle_site_symmetry_3
  _geom_angle_publ_flag
 C002 Fe01 C002 180.00(15) 3_666 . ?
 C002 Fe01 C003 37.88(17) . . ?
 C002 Fe01 C003 142.12(17) . 3_666 ?
 C002 Fe01 C003 142.12(17) 3_666 . ?
 C002 Fe01 C003 37.88(17) 3_666 3_666 ?
 C002 Fe01 C004 114.97(18) 3_666 . ?
 C002 Fe01 C004 114.97(18) . 3_666 ?
 C002 Fe01 C004 65.03(18) 3_666 3_666 ?
 C002 Fe01 C004 65.03(18) . . ?
 C003 Fe01 C003 180.0 . 3_666 ?
 C004 Fe01 C003 37.49(19) 3_666 3_666 ?
 C004 Fe01 C003 37.49(19) . . ?
 C004 Fe01 C003 142.51(19) . 3_666 ?
 C004 Fe01 C003 142.51(19) 3_666 . ?
 C004 Fe01 C004 180.0 . 3_666 ?
 C005 Fe01 C002 140.66(18) 3_666 . ?
 C005 Fe01 C002 140.66(18) . 3_666 ?
 C005 Fe01 C002 39.34(18) 3_666 3_666 ?
 C005 Fe01 C002 39.34(18) . . ?
 C005 Fe01 C003 114.18(18) 3_666 . ?
 C005 Fe01 C003 65.82(18) . . ?
 C005 Fe01 C003 114.18(18) . 3_666 ?
 C005 Fe01 C003 65.82(18) 3_666 3_666 ?
 C005 Fe01 C004 111.00(19) . 3_666 ?
 C005 Fe01 C004 69.00(19) 3_666 3_666 ?
 C005 Fe01 C004 111.00(19) 3_666 . ?
 C005 Fe01 C004 69.00(19) . . ?
 C005 Fe01 C005 180.0 . 3_666 ?
 C006 Fe01 C002 67.89(18) 3_666 3_666 ?
 C006 Fe01 C002 67.89(18) . . ?
 C006 Fe01 C002 112.11(18) . 3_666 ?
 C006 Fe01 C002 112.11(18) 3_666 . ?
 C006 Fe01 C003 67.38(17) . . ?
 C006 Fe01 C003 67.38(18) 3_666 3_666 ?
 C006 Fe01 C003 112.62(18) 3_666 . ?
 C006 Fe01 C003 112.62(17) . 3_666 ?
 C006 Fe01 C004 42.9(2) . . ?
 C006 Fe01 C004 42.9(2) 3_666 3_666 ?
 C006 Fe01 C004 137.1(2) . 3_666 ?
 C006 Fe01 C004 137.1(2) 3_666 . ?
 C006 Fe01 C005 42.1(2) . . ?
 C006 Fe01 C005 42.1(2) 3_666 3_666 ?
 C006 Fe01 C005 137.9(2) 3_666 . ?
 C006 Fe01 C005 137.9(2) . 3_666 ?
 C006 Fe01 C006 180.0(2) 3_666 . ?
 Fe01 C002 H002 125.8 . . ?
 C003 C002 Fe01 71.4(2) . . ?
 C003 C002 H002 124.9 . . ?
 C003 C002 C005 110.3(4) . . ?
 C005 C002 Fe01 69.6(2) . . ?
 C005 C002 H002 124.9 . . ?
 Fe01 C003 H003 126.0 . . ?
 C002 C003 Fe01 70.76(19) . . ?
 C002 C003 H003 123.8 . . ?
 C004 C003 Fe01 71.1(2) . . ?
 C004 C003 C002 112.4(4) . . ?
 C004 C003 H003 123.8 . . ?
 Fe01 C004 H004 126.1 . . ?
 C003 C004 Fe01 71.5(2) . . ?
 C003 C004 H004 126.4 . . ?
 C003 C004 C006 107.1(4) . . ?
 C006 C004 Fe01 67.6(2) . . ?
 C006 C004 H004 126.4 . . ?
 Fe01 C005 H005 126.5 . . ?
 C002 C005 Fe01 71.03(19) . . ?
 C002 C005 H005 126.5 . . ?
 C002 C005 C006 106.9(4) . . ?
 C006 C005 Fe01 68.7(2) . . ?
 C006 C005 H005 126.5 . . ?
 Fe01 C006 H006 128.3 . . ?
 C004 C006 Fe01 69.5(2) . . ?
 C004 C006 H006 128.3 . . ?
 C005 C006 Fe01 69.2(2) . . ?
 C005 C006 C004 103.3(4) . . ?
 C005 C006 H006 128.3 . . ?

loop_
  _refln_index_h
  _refln_index_k
  _refln_index_l
  _refln_F_squared_meas
  _refln_F_squared_sigma
 0 0 -2 6290.81 64.41
 0 0 2 6239.35 64.52
 0 0 3 -0.01 0.02
 0 0 -3 0.01 0.02
 0 0 -4 4134.03 43.21
 0 0 -5 -0.01 0.03
 0 0 5 0.01 0.04
 0 0 6 2273.07 25.06
 0 0 -6 2271.44 24.68
 0 0 -7 0.03 0.04
 0 0 7 0.02 0.05
 0 0 8 359.77 5.63
 0 0 -8 338.72 5.17
 0 0 -9 -0.02 0.05
 0 0 9 -0.02 0.09
 0 -1 0 0.3 0.07
 0 1 0 0.35 0.06
 0 -1 1 9999 101.94
 0 1 -1 9867.82 101.72
 0 1 1 9988.12 101.55
 0 -1 -1 9850.85 101.73
 0 -1 2 3502.43 36.8
 0 -1 -2 3526.82 36.32
 0 1 2 3510.95 36.35
 0 1 -2 3515.58 36.57
 0 -1 -3 740.61 8.25
 0 -1 3 749.24 8.69
 0 1 3 743.92 8.28
 0 1 -3 742.33 8.57
 0 1 4 19.61 0.66
 0 -1 -4 19.98 0.63
 0 -1 5 3070.43 32.93
 0 1 -5 3022.24 32.7
 0 -1 -5 3041.55 32.13
 0 1 5 3063.25 32.33
 0 1 -6 110.73 2.3
 0 -1 6 108.45 2.46
 0 1 -7 610 8.04
 0 -1 7 593.91 8.38
 0 -1 -7 601.45 7.48
 0 1 7 610.92 7.71
 0 1 8 25.39 1.03
 0 1 -8 24.8 1.12
 0 -1 -8 25.12 0.95
 0 -1 8 26.09 1.31
 0 1 9 193.27 3.45
 0 1 -9 196.55 3.73
 0 -1 9 200.53 4.17
 0 -1 -9 206.75 3.36
 0 -2 0 1443.65 15.84
 0 2 0 1411.04 15.4
 0 2 1 3006.21 31.61
 0 -2 -1 3052.02 31.99
 0 -2 2 6.98 0.49
 0 2 -2 7.31 0.42
 0 -2 -2 7.09 0.41
 0 2 2 7.22 0.36
 0 -2 -3 11.44 0.5
 0 -2 3 10.76 0.64
 0 2 -3 9.95 0.54
 0 2 4 1663.09 18.05
 0 -2 4 1660.85 19.1
 0 2 -4 1675.51 18.64
 0 -2 -4 1696.55 18.11
 0 -2 5 11.13 0.74
 0 2 5 11.79 0.54
 0 -2 -5 11.96 0.55
 0 2 -5 12.06 0.67
 0 -2 6 882.96 11.25
 0 2 -6 875.27 10.87
 0 2 -7 27.03 1.17
 0 -2 7 27.2 1.31
 0 2 8 276 4.03
 0 -2 -8 296.65 4.12
 0 2 -9 0.15 0.11
 0 -2 9 0.09 0.1
 0 3 0 0.18 0.07
 0 -3 0 0.43 0.15
 0 3 -1 1682.09 18.26
 0 3 1 1655.18 18.08
 0 -3 -1 1685.41 18.73
 0 3 -2 21.84 0.85
 0 -3 -2 20.55 0.9
 0 3 2 18.69 0.72
 0 3 3 2211.56 23.81
 0 -3 3 2161.89 24.92
 0 -3 4 792.03 10.26
 0 3 -4 803.62 9.76
 0 3 4 765.5 9.12
 0 -3 -4 778.59 9.54
 0 -3 -5 1308.88 14.88
 0 -3 5 1299.2 15.78
 0 3 5 1295.51 14.52
 0 3 6 1.1 0.18
 0 -3 6 0.94 0.24
 0 -3 -6 0.69 0.16
 0 3 -6 0.93 0.21
 0 3 -7 458.9 6.76
 0 -3 7 461.76 7.2
 0 -3 -7 464.35 6.14
 0 3 7 441.72 5.79
 0 3 8 24.49 0.83
 0 -3 8 29.18 1.52
 0 3 -8 28.71 1.33
 0 -3 -8 24.34 0.94
 0 -3 9 229.73 4.92
 0 3 -9 212.87 4.34
 0 -4 0 3807.89 40.8
 0 4 0 3704.07 39.91
 0 4 -1 92.72 2.06
 0 -4 1 96.37 2.6
 0 -4 -1 93.55 2.42
 0 4 1 89.72 2
 0 4 -2 3327.37 35.72
 0 -4 -2 3356.39 36.4
 0 4 2 3291.94 35.46
 0 -4 2 3362.28 36.58
 0 4 3 291.34 4.25
 0 -4 -3 301.61 4.94
 0 -4 4 1671.99 19.6
 0 4 -4 1685.17 19.08
 0 -4 -4 1640.73 19.26
 0 4 4 1653.52 18.44
 0 -4 -5 24.65 1.11
 0 4 -5 26.15 1.17
 0 4 5 22.53 0.84
 0 -4 6 557.15 8.29
 0 -4 -6 570.68 7.6
 0 4 6 556.85 6.88
 0 4 -7 7.61 0.66
 0 -4 7 8.56 0.77
 0 -4 -7 8.67 0.63
 0 4 7 8.33 0.49
 0 4 8 285.79 4.01
 0 -4 -8 281.42 4.61
 0 4 -8 289.17 5.13
 0 -4 8 297.48 5.5
 0 4 -9 10.87 0.88
 0 -4 9 10.36 0.96
 0 5 0 0.02 0.05
 0 -5 0 0.03 0.06
 0 -5 1 1568.28 18.55
 0 5 -1 1494.38 17.49
 0 5 -2 45.41 1.48
 0 -5 2 37.81 1.66
 0 5 -3 1343.83 15.96
 0 -5 3 1384.38 16.94
 0 -5 -3 1346.65 16.66
 0 5 3 1352.52 15.59
 0 -5 -4 12.67 0.92
 0 5 4 11.77 0.68
 0 -5 4 11.16 0.89
 0 5 -4 10.91 0.76
 0 -5 -5 379.15 6.21
 0 5 -5 391.74 6.05
 0 -5 5 372.21 6.45
 0 5 5 382.41 5.4
 0 5 6 0.27 0.11
 0 -5 -6 0.1 0.09
 0 5 7 312.65 4.51
 0 -5 -7 309.51 5.37
 0 -5 7 304.06 5.61
 0 5 -7 300.79 5.22
 0 -5 8 5.9 0.67
 0 5 -8 6.44 0.64
 0 5 -9 69.72 2.31
 0 -5 9 69.7 2.53
 0 -6 0 395.12 6.73
 0 6 0 374.88 5.77
 0 6 -1 31 1.26
 0 6 1 30.16 1.22
 0 -6 -1 29.44 1.54
 0 -6 1 31.08 1.55
 0 -6 2 744.65 11.11
 0 6 2 820.66 10.22
 0 6 -2 762.28 10.14
 0 -6 -2 823.61 11.27
 0 -6 -3 3.04 0.5
 0 6 3 2.19 0.32
 0 -6 4 403.56 6.84
 0 6 4 398 5.9
 0 6 -4 397.81 6.24
 0 -6 -4 399.55 6.97
 0 6 -5 13.82 0.91
 0 -6 -5 14.6 1.07
 0 6 5 14.95 0.83
 0 -6 5 14.08 1.05
 0 -6 6 250.08 5.08
 0 -6 -6 244.95 4.95
 0 6 -6 246.93 4.58
 0 6 6 242.67 4.08
 0 6 -7 6.55 0.64
 0 -6 7 6.51 0.7
 0 -6 8 85.36 2.7
 0 6 -8 84.88 2.48
 0 6 -9 0.05 0.07
 0 -6 9 0.03 0.07
 0 -7 0 -0.03 0.1
 0 7 0 -0.02 0.03
 0 7 -1 431.37 6.52
 0 -7 1 442.61 7.52
 0 7 1 448.76 6.62
 0 -7 2 0.36 0.19
 0 7 -2 0.82 0.22
 0 -7 -3 684.42 10.33
 0 -7 3 665.38 10.17
 0 7 3 675.05 8.97
 0 7 -3 653.44 9.08
 0 -7 -4 25.31 1.51
 0 -7 4 22.37 1.39
 0 7 -4 22.2 1.18
 0 7 4 24.79 1.15
 0 7 5 242.4 4.26
 0 -7 -5 249.28 5.26
 0 -7 -6 8.41 0.85
 0 7 -6 9.23 0.77
 0 7 6 8.5 0.64
 0 -7 6 8.82 0.87
 0 7 -7 106.99 2.81
 0 -7 7 97.93 2.96
 0 7 -8 0.05 0.08
 0 -7 8 0.25 0.15
 0 -7 9 26.73 1.51
 0 7 -9 25.77 1.33
 0 8 0 210.02 3.98
 0 -8 0 209.92 4.76
 0 8 -1 0.76 0.22
 0 -8 1 0.87 0.28
 0 8 1 0.82 0.21
 0 -8 -1 1.03 0.31
 0 -8 -2 428.87 7.58
 0 8 -2 409.39 6.52
 0 -8 2 410.66 7.35
 0 8 2 436.22 6.5
 0 -8 3 1.11 0.32
 0 -8 -3 4.8 0.67
 0 8 3 5.09 0.53
 0 -8 4 219.31 4.82
 0 8 4 215.76 4.08
 0 8 -4 210.61 4.22
 0 -8 -4 214 4.97
 0 -8 -5 0.3 0.19
 0 8 5 0.11 0.09
 0 8 -5 0.22 0.13
 0 -8 5 0.07 0.09
 0 -8 7 0.03 0.1
 0 8 -7 0.05 0.07
 0 8 -8 31.16 1.43
 0 -8 8 30.98 1.58
 0 -8 9 0.91 0.28
 0 8 -9 1.1 0.27
 0 9 0 0.02 0.05
 0 -9 0 -0.04 0.09
 0 9 1 66.35 2.09
 0 -9 -1 68.81 2.65
 0 -9 1 72.83 2.66
 0 9 -1 73.63 2.2
 0 -9 2 1.09 0.31
 0 9 -2 1.34 0.28
 0 -9 -2 1.17 0.34
 0 9 2 1.19 0.26
 0 -9 3 83.81 2.86
 0 9 3 84.87 2.37
 0 -9 -3 85.73 2.96
 0 9 -4 7.26 0.68
 0 -9 4 6 0.72
 0 -9 5 27.92 1.58
 0 9 -5 29.23 1.42
 0 -9 6 0.1 0.12
 0 9 -6 0.05 0.08
 0 -9 7 28.18 1.5
 0 9 -7 27.33 1.35
 0 9 -8 1.61 0.31
 0 -9 8 1.85 0.39
 0 -10 0 26.19 1.54
 0 10 0 25.9 1.27
 0 10 1 3.03 0.43
 0 -10 -1 2.63 0.5
 0 10 -1 2.63 0.4
 0 10 2 45.74 1.71
 0 -10 -2 43.06 2.07
 0 -10 -3 0.51 0.23
 0 10 3 0.75 0.22
 0 -10 3 0.51 0.22
 0 10 -3 0.83 0.23
 0 10 -4 30.69 1.42
 0 -10 4 28.53 1.58
 0 10 -6 23.4 1.25
 0 -10 6 22.88 1.38
 0 -11 1 46.78 2.03
 0 11 -1 44.59 1.69
 0 11 1 50.01 1.77
 0 -11 -1 49.97 2.13
 0 -11 2 2.03 0.41
 0 11 2 1.99 0.35
 0 -11 -2 2.19 0.45
 0 11 -2 2.3 0.37
 0 11 -3 38.18 1.59
 0 -11 3 41.01 1.86
 1 0 -9 303.39 3.56
 -1 0 9 238.73 3.57
 -1 0 8 -0.01 0.03
 1 0 -8 0.01 0.02
 1 0 -7 894.55 10.1
 -1 0 7 910.29 10.43
 -1 0 6 -0.01 0.03
 1 0 -6 0.01 0.02
 1 0 -5 3453.62 35.67
 -1 0 5 3413.12 35.83
 1 0 -4 0.19 0.05
 -1 0 4 0.25 0.05
 1 0 -3 3264.3 33.5
 -1 0 3 3246.61 33.68
 -1 0 2 0 0.01
 1 0 -2 0 0.01
 1 0 0 0.15 0.06
 -1 0 0 0.28 0.07
 -1 0 -1 9657.41 99.83
 1 0 1 9732.55 99.88
 1 0 2 0.02 0.04
 -1 0 -2 0.01 0.03
 -1 0 -3 2457.03 26.67
 1 0 3 2481.4 26.83
 -1 0 -4 0.02 0.03
 1 0 4 0.02 0.05
 -1 0 -5 2539.36 27.42
 1 0 5 2446.72 27.79
 -1 0 -6 -0.02 0.03
 1 0 6 -0.02 0.05
 1 0 7 278.91 5.16
 -1 0 -7 263.48 4.59
 -1 0 -8 0.02 0.05
 1 0 8 0.03 0.08
 1 0 9 198.8 4.33
 -1 0 -9 186.5 3.81
 1 1 -9 0.66 0.16
 -1 -1 9 0.73 0.19
 1 1 -8 400.42 5.59
 -1 -1 8 404.32 5.91
 1 1 -7 5.46 0.41
 -1 -1 7 6.01 0.49
 -1 -1 6 1201.94 13.76
 1 1 -6 1197.82 13.48
 1 1 -4 2477.45 26.36
 -1 -1 4 2529.05 26.72
 -1 -1 3 126.9 2.19
 1 1 -3 132.49 1.98
 -1 -1 2 3642.93 37.99
 1 1 -2 3630.6 37.69
 -1 1 2 3629.58 37.4
 1 -1 -2 3636.88 37.44
 -1 -1 1 24.49 0.71
 1 -1 -1 23.82 0.62
 1 1 -1 23.67 0.67
 1 1 0 9046.4 92.73
 -1 1 0 9007.68 92.66
 -1 -1 0 8978.37 92.86
 1 -1 0 9008.61 92.74
 1 1 1 3761.06 38.65
 1 -1 1 3655.53 38.69
 -1 1 -1 3680.42 38.56
 -1 -1 -1 3617.75 38.57
 -1 -1 -2 196.1 3.03
 1 1 2 210.62 3.24
 -1 1 -3 695.89 8.42
 -1 -1 -3 680.85 8.32
 1 1 3 693.15 8.45
 -1 -1 -4 3529.93 37.12
 1 -1 4 3540.95 37.75
 1 1 4 3456.86 37.3
 1 1 5 113.1 2.53
 1 -1 5 107.52 2.62
 -1 -1 -5 110.91 2.4
 -1 1 -6 866.18 10.85
 -1 -1 -6 851.9 10.59
 1 -1 6 860.1 11.24
 1 1 7 23.25 1.2
 1 -1 7 22.85 1.28
 -1 -1 -7 21.43 1.04
 -1 1 -7 20.39 1.08
 -1 1 -8 239.02 4.5
 1 -1 8 232.29 4.85
 -1 -1 -8 241.63 4.32
 1 -1 9 0.03 0.07
 -1 1 -9 0.05 0.07
 1 2 -9 174.96 3.43
 -1 -2 9 185.13 3.88
 -1 -2 8 4.95 0.54
 1 2 -8 4.45 0.45
 -1 -2 7 267.13 4.51
 1 2 -7 269.94 4.23
 1 2 -6 4.08 0.38
 -1 -2 6 4.79 0.48
 1 2 -5 760.27 9.11
 -1 -2 5 760.22 9.51
 -1 2 4 229.92 2.7
 1 -2 -4 217.67 2.88
 1 -2 -3 1517.31 16.16
 -1 2 3 1501.64 15.84
 1 2 -3 1523.36 16.48
 1 2 -2 52.12 1.2
 -1 2 2 53.32 1.02
 1 -2 -2 50.49 1.13
 1 -2 -1 2837.05 29.94
 -1 -2 1 2732.59 30.37
 -1 2 1 2810.58 29.71
 1 2 0 801.08 9.42
 -1 -2 0 812.73 9.5
 -1 2 -1 53.51 1.3
 1 2 1 51.2 1.31
 1 -2 1 52.79 1.38
 -1 -2 -1 54.17 1.34
 1 -2 2 635.44 8.2
 -1 -2 -2 651.33 7.97
 -1 2 -2 664.56 7.98
 1 2 2 642.84 7.95
 -1 2 -3 1876.73 20.8
 1 2 3 1898.61 20.73
 -1 -2 -3 1863.48 20.59
 1 -2 3 1851.31 21.07
 1 2 4 144.88 2.84
 1 -2 4 144.75 3.1
 1 -2 5 2540.24 28.57
 1 2 5 2540.91 27.92
 -1 -2 -5 2531.92 27.7
 -1 2 -5 2544.89 28.16
 1 2 6 22.76 1.08
 -1 -2 -6 21.29 0.98
 1 2 7 400.94 6.23
 -1 2 -7 404.56 6.45
 -1 -2 -7 403.57 5.99
 1 -2 7 413.75 7.01
 1 2 8 20.33 1.11
 -1 -2 -8 18.21 0.97
 1 -2 8 19.49 1.26
 -1 2 -8 17.85 1.09
 1 -2 9 274.3 5.7
 1 2 9 284.94 4.94
 -1 2 -9 274.88 5.16
 -1 -2 -9 272.01 4.66
 -1 2 -10 3.55 0.51
 -1 -3 9 8.72 0.8
 1 3 -9 7.97 0.68
 -1 -3 8 240.61 4.6
 1 3 -8 237.44 4.21
 1 3 -7 8.03 0.61
 -1 -3 7 7.58 0.66
 -1 -3 6 348.93 5.68
 1 3 -6 353.58 5.31
 1 -3 -6 340.39 4.53
 -1 -3 5 1.58 0.28
 -1 3 5 2.53 0.21
 1 3 -5 1.97 0.27
 1 3 -4 1110.64 12.93
 -1 -3 4 1085.17 13.65
 1 3 -3 12.27 0.66
 -1 -3 3 11.95 0.79
 -1 -3 2 3353.91 37.21
 1 -3 -2 3457.06 36.46
 -1 3 2 3406.32 35.92
 1 3 -2 3425.48 36.3
 1 3 -1 6.96 0.46
 1 -3 -1 7.36 0.53
 -1 3 1 6.73 0.41
 -1 -3 1 6.42 0.54
 -1 3 0 2896.37 31.3
 1 3 0 2845.44 31.34
 1 -3 1 165.39 3.19
 1 3 1 167.51 2.88
 -1 3 -1 170.89 2.92
 -1 -3 -1 170.34 3.09
 -1 -3 -2 2596.02 28.25
 1 3 2 2581.06 28.16
 -1 3 -2 2537.44 28.24
 -1 -3 -3 1800.23 20.32
 1 -3 3 1847.71 20.82
 -1 3 -3 1814.46 20.5
 1 3 3 1818.99 20.27
 1 3 4 3873.09 41.23
 -1 3 -4 3832.36 41.6
 1 -3 4 3874.03 41.96
 -1 -3 -4 3855.18 41.21
 1 -3 5 61.7 2.06
 -1 3 -5 58.6 1.88
 1 3 5 65.62 1.79
 -1 -3 -5 59.83 1.72
 -1 3 -6 868.87 11.37
 1 3 6 869.12 10.91
 1 -3 6 855.89 11.8
 -1 -3 -6 881.45 10.85
 1 3 7 10.89 0.75
 1 -3 7 10.69 0.92
 -1 3 -7 10.95 0.85
 -1 -3 -7 11.31 0.74
 -1 3 -8 323.77 5.8
 -1 -3 -8 325.33 5.29
 1 3 8 335.19 5.36
 1 -3 9 29.35 1.7
 -1 3 -9 32.18 1.58
 -1 3 -10 110.32 3.07
 1 4 -9 120 2.98
 -1 -4 9 127.42 3.38
 -1 -4 8 29.76 1.42
 1 4 -8 27.91 1.24
 1 -4 -7 445.28 6.04
 -1 4 7 469.18 5.46
 -1 -4 7 448.84 7.18
 1 4 -7 456.01 6.66
 -1 4 6 0.3 0.08
 1 4 -6 0.13 0.09
 -1 -4 6 0.15 0.11
 1 -4 -6 0.23 0.11
 -1 4 5 637.5 7.53
 -1 -4 5 602.47 8.81
 1 -4 -5 604.13 8.24
 1 4 -5 626.77 8.12
 -1 -4 4 14.63 0.96
 1 -4 -4 14.93 0.87
 1 4 -4 14.75 0.8
 -1 4 4 16.01 0.69
 1 -4 -3 1885.37 21.92
 -1 4 3 1953.86 21.06
 1 4 -2 130.45 2.62
 -1 4 2 121.23 2.34
 -1 -4 2 128.15 3.03
 1 -4 -1 3172.88 34.78
 -1 4 1 3157.86 33.93
 1 4 -1 3170.93 34.04
 -1 -4 1 3205.06 34.93
 1 -4 0 71.38 2.04
 1 4 0 71.25 1.76
 -1 4 0 68.49 1.71
 -1 -4 0 68.21 2.02
 1 4 1 3248.42 35.36
 -1 -4 -1 3363.94 36.01
 1 -4 1 3256.95 36.24
 -1 4 -1 3343.07 35.49
 1 4 2 376.85 5.52
 -1 -4 -2 397.48 5.89
 -1 -4 -3 3101.65 33.45
 -1 4 -3 3178.61 33.5
 -1 4 -4 214.71 4.09
 1 -4 4 221.69 4.35
 1 4 4 219.02 3.73
 -1 -4 -5 730.4 9.6
 1 -4 5 725.26 10.31
 1 4 5 748.63 9.42
 -1 4 -5 742.68 9.97
 1 -4 6 83.91 2.65
 -1 4 -6 85.34 2.45
 1 4 8 17.59 0.93
 -1 4 -8 17.43 1.13
 1 -4 8 18.36 1.27
 -1 -4 -8 18.38 1.01
 1 -4 9 138.1 3.88
 -1 4 -9 137.8 3.53
 1 -4 10 0.04 0.06
 -1 4 -10 -0.03 0.09
 1 5 -9 0.18 0.12
 -1 -5 9 0.03 0.07
 -1 -5 8 180.25 4.02
 1 5 -8 182.15 3.74
 -1 5 7 24.24 0.87
 -1 -5 7 21.36 1.25
 1 -5 -7 22.42 1.12
 1 5 -7 22.29 1.12
 -1 -5 6 499.6 7.7
 1 5 -6 501.86 7.15
 1 -5 -6 490.29 7.65
 -1 5 6 510.09 6.54
 1 -5 -5 0.59 0.2
 -1 5 5 0.85 0.17
 -1 -5 4 604.32 8.8
 -1 5 4 592.96 7.64
 1 5 -4 601.56 7.97
 -1 5 3 75.38 1.88
 1 -5 -3 78.78 2.43
 -1 -5 3 79.02 2.57
 1 5 -3 77.5 2.03
 -1 -5 2 884.69 12.31
 -1 5 2 903.86 11.1
 1 5 -2 914.15 11.27
 -1 -5 1 19.19 1.16
 1 5 -1 23.39 1.03
 1 5 0 1069.07 12.57
 -1 -5 0 1069.1 13.5
 1 -5 0 1081.53 13.61
 1 5 1 40.98 1.36
 1 -5 1 36.47 1.56
 -1 5 -1 37.53 1.36
 -1 -5 -1 38.78 1.6
 -1 5 -2 1457.7 16.97
 1 5 2 1433.62 16.49
 -1 -5 -2 1427.1 17.33
 1 -5 2 1472.08 17.67
 1 5 3 57.87 1.65
 1 -5 3 59.21 2.09
 -1 -5 -3 59.16 1.95
 -1 5 -3 55.94 1.82
 1 -5 4 267.62 5.12
 1 5 4 256.97 4.24
 -1 5 -4 272.74 4.72
 -1 -5 -4 257.7 4.75
 1 5 5 127.05 2.73
 -1 -5 -5 133.51 3.13
 -1 5 -6 192.94 4.06
 1 -5 6 196.84 4.36
 1 5 6 183.05 3.52
 -1 -5 -6 189.45 3.93
 1 5 7 0.83 0.2
 1 -5 7 1.15 0.32
 -1 5 -7 0.83 0.25
 -1 -5 -7 1.08 0.27
 -1 5 -8 168.54 3.91
 1 -5 8 164.21 4.23
 -1 5 -9 1.36 0.33
 1 -5 9 1.44 0.39
 -1 -6 9 25.47 1.44
 1 6 -9 25.94 1.3
 -1 -6 7 193.83 4.31
 1 6 -7 201.43 3.95
 -1 -6 6 27.73 1.46
 1 6 -6 29.4 1.3
 -1 6 5 396.13 5.79
 -1 -6 5 407.67 6.9
 1 6 -5 403.36 6.17
 1 -6 -5 386.36 6.81
 1 -6 -4 17.04 1.2
 -1 6 4 15.55 0.86
 -1 -6 4 14.88 1.08
 1 6 -4 15.33 0.9
 1 -6 -3 529.15 8.52
 -1 6 3 545.71 7.44
 -1 -6 2 11.12 0.95
 -1 6 2 11.58 0.76
 1 6 -2 11.52 0.77
 1 -6 -2 11.92 0.95
 1 6 -1 279.05 4.61
 -1 6 1 266.78 4.58
 -1 -6 1 292.13 5.52
 1 -6 -1 257.74 5.22
 -1 -6 0 11.05 0.91
 -1 6 0 11.48 0.75
 1 6 0 12.3 0.78
 1 -6 0 11.08 0.93
 -1 6 -1 515.75 7.47
 1 -6 1 527.87 8.13
 -1 -6 -1 520.06 8.09
 1 6 1 538.83 7.3
 -1 -6 -2 1.41 0.31
 -1 6 -2 1.21 0.26
 1 -6 2 1.41 0.33
 1 6 3 289.24 4.71
 -1 6 -3 291.95 5.08
 -1 -6 -3 284.91 5.4
 1 -6 3 296.89 5.62
 -1 6 -4 0.71 0.21
 -1 -6 -4 0.48 0.19
 1 6 4 0.58 0.17
 1 -6 4 0.69 0.24
 1 6 5 86.48 2.19
 1 -6 5 84.13 2.75
 -1 6 -5 88.94 2.55
 -1 -6 -5 81.73 2.57
 1 6 6 1.8 0.29
 -1 -6 -6 1.47 0.33
 1 -6 6 1.9 0.4
 -1 -6 -7 218.05 4.6
 1 6 7 233.27 4.1
 -1 6 -8 19.7 1.2
 1 -6 8 20.56 1.37
 -1 6 -9 42.42 1.84
 1 -6 9 43.49 2.02
 -1 -7 8 33.1 1.63
 1 7 -8 31.99 1.42
 1 7 -7 2.65 0.4
 -1 -7 7 2.51 0.44
 1 7 -6 169.64 3.58
 -1 -7 6 168.33 3.96
 -1 -7 5 28.96 1.56
 1 -7 -5 28.84 1.62
 -1 7 5 31.17 1.28
 1 -7 -4 423.91 7.44
 1 7 -4 423 6.46
 -1 -7 4 431.48 7.52
 -1 7 4 406.33 6.27
 -1 7 3 23.32 1.13
 1 -7 -3 24.07 1.48
 -1 -7 3 20.53 1.34
 1 7 -3 22.21 1.13
 1 -7 -2 479.58 8.15
 1 7 -2 463.43 7.01
 -1 -7 2 487.27 8.18
 -1 7 2 488.65 7.11
 -1 -7 1 7.47 0.8
 1 7 -1 7.36 0.64
 1 -7 0 378.3 6.75
 -1 7 0 368.24 5.88
 1 7 0 363.84 5.78
 -1 -7 -1 1 0.3
 1 7 1 1.34 0.27
 1 -7 1 1.92 0.39
 -1 7 -1 2.04 0.34
 1 -7 2 649.11 9.8
 1 7 2 639.11 8.67
 -1 7 -2 633.66 8.96
 -1 -7 -2 651.01 9.8
 1 7 3 17.66 0.96
 -1 7 -3 17.67 1.07
 1 -7 3 18.66 1.25
 -1 -7 -3 18.35 1.25
 1 -7 4 201.67 4.64
 -1 7 -4 190.57 4.05
 -1 -7 -4 195.54 4.51
 1 7 4 203.12 3.82
 -1 7 -5 22.09 1.24
 -1 -7 -5 22.7 1.38
 1 -7 5 22.35 1.38
 1 7 5 21.24 1.06
 1 7 6 227.86 4.08
 -1 -7 -6 221.24 4.84
 -1 7 -6 224.85 4.49
 -1 7 -7 27.84 1.42
 1 -7 7 24.57 1.47
 1 -7 8 73.84 2.57
 -1 7 -8 71.98 2.37
 1 -7 9 3.5 0.57
 -1 7 -9 4.02 0.55
 1 8 -8 0.2 0.12
 -1 -8 8 0.16 0.12
 1 8 -7 35.72 1.53
 -1 -8 7 35.96 1.74
 -1 -8 5 111.38 3.27
 -1 -8 4 3.1 0.53
 1 -8 -4 3.66 0.6
 1 8 -4 3.45 0.46
 -1 8 4 3.72 0.45
 -1 -8 3 292.49 5.97
 1 -8 -3 312.87 6.25
 -1 8 3 306.03 5.09
 1 8 -2 9.55 0.75
 1 -8 -2 10.46 1
 -1 -8 2 9.27 0.92
 -1 8 2 8.56 0.7
 -1 8 1 251.47 4.66
 1 -8 -1 273.03 5.6
 1 -8 0 4.01 0.59
 -1 -8 0 3.72 0.58
 -1 8 0 3.41 0.46
 1 8 0 3.45 0.44
 -1 8 -1 448.62 6.96
 1 -8 1 464.61 7.81
 1 8 1 452.62 6.83
 1 8 2 1.53 0.29
 -1 -8 -2 1.62 0.39
 1 -8 2 0.28 0.18
 1 8 3 325.32 5.43
 1 -8 3 336.16 6.36
 -1 8 -3 329.86 5.72
 -1 -8 -3 331.89 6.43
 -1 -8 -4 0.82 0.29
 -1 8 -4 0.88 0.25
 1 -8 4 0.68 0.26
 1 8 4 0.59 0.2
 -1 8 -5 138.78 3.39
 1 -8 5 139.49 3.73
 1 8 5 145.55 3.23
 -1 -8 -5 137.24 3.86
 -1 8 -6 3.28 0.47
 1 -8 6 2.38 0.45
 -1 8 -7 83.31 2.55
 1 -8 7 81.9 2.75
 1 -8 8 0.34 0.19
 -1 8 -8 0.17 0.12
 1 -8 9 16.68 1.19
 -1 8 -9 17.95 1.12
 1 9 -8 15.35 0.99
 -1 -9 8 14.91 1.09
 1 9 -7 0.43 0.18
 -1 -9 7 0.48 0.21
 -1 -9 6 26.69 1.5
 1 9 -6 26.87 1.33
 1 9 -5 0.18 0.12
 -1 -9 4 47.77 2.07
 1 9 -4 46.67 1.77
 -1 -9 3 0.14 0.15
 1 -9 -3 0.08 0.1
 -1 9 3 0.13 0.09
 1 9 -3 0.12 0.11
 1 -9 -2 71.99 2.7
 -1 9 2 68.89 2.19
 -1 -9 1 0.28 0.16
 -1 9 1 0.29 0.14
 1 -9 -1 0.15 0.14
 1 9 -1 0.07 0.08
 -1 -9 0 83.46 2.83
 -1 9 0 84.92 2.47
 1 9 0 86.19 2.4
 -1 -9 -1 1.99 0.44
 -1 9 -1 1.72 0.33
 1 9 1 1.65 0.31
 -1 -9 -2 147.94 4.04
 1 9 2 150.79 3.26
 -1 9 -3 0.19 0.12
 1 9 3 0.55 0.19
 -1 -9 -3 0.27 0.17
 1 -9 3 0.25 0.17
 1 -9 4 46.65 2.11
 -1 -9 -4 48.1 2.21
 1 9 4 50.97 1.8
 -1 9 -4 46.68 1.84
 -1 9 -5 0.06 0.07
 1 -9 5 -0.03 0.07
 1 -9 6 43.81 1.94
 -1 9 -6 46.22 1.8
 -1 9 -7 0.11 0.11
 1 -9 7 0.03 0.07
 1 -9 8 20.69 1.33
 -1 9 -8 21.02 1.2
 1 10 -6 1.75 0.33
 -1 -10 6 1.85 0.41
 1 10 -4 0.07 0.08
 -1 -10 4 0.03 0.07
 -1 -10 3 29.94 1.61
 1 10 -3 31.48 1.39
 -1 -10 2 -0.03 0.07
 1 10 -2 -0.02 0.05
 1 -10 -2 0.04 0.08
 -1 10 2 0.03 0.04
 -1 10 1 28.14 1.37
 1 -10 -1 28.46 1.66
 -1 -10 1 27.51 1.61
 1 10 -1 27.89 1.27
 -1 -10 0 3.41 0.53
 -1 10 0 5.15 0.58
 1 -10 0 4.85 0.68
 1 10 0 4.53 0.5
 1 -10 1 49.22 2.18
 -1 10 -1 49.33 1.86
 -1 -10 -1 47.59 2.1
 1 10 1 48.47 1.71
 -1 -10 -2 3.02 0.52
 1 10 2 2.85 0.41
 1 -10 3 32.2 1.71
 -1 10 -3 31.49 1.45
 -1 -10 -3 28.65 1.65
 1 10 3 34.06 1.47
 -1 10 -4 1.36 0.31
 1 -10 4 1.35 0.34
 1 -10 5 21.08 1.33
 -1 10 -5 19.59 1.14
 -1 10 -6 5.19 0.58
 1 -10 6 5.42 0.67
 1 11 -2 33.9 1.4
 -1 -11 2 35.22 1.73
 1 11 -1 0.07 0.08
 1 -11 -1 0.04 0.1
 -1 11 1 0.05 0.07
 -1 -11 1 0.03 0.09
 1 11 0 40.67 1.55
 -1 -11 0 37.58 1.77
 1 11 1 1.72 0.32
 1 -11 1 2.52 0.47
 -1 11 -1 2.27 0.39
 -1 -11 -1 2.04 0.42
 1 -11 2 37.25 1.83
 -1 11 -2 35.63 1.54
 1 11 2 35.99 1.47
 -1 -11 -2 36 1.83
 -2 0 5 0.01 0.02
 2 0 -5 0.01 0.02
 -2 0 4 2261.98 23.72
 2 0 -4 2254.33 23.48
 2 0 -3 -0.01 0.02
 -2 0 3 0.02 0.03
 -2 0 2 1036.54 11.18
 2 0 -2 936.44 11.13
 -2 0 1 0.01 0.03
 2 0 -1 -0.01 0.04
 2 0 0 3943.68 41.51
 -2 0 0 3870.39 41.31
 -2 0 -1 -0.02 0.02
 2 0 1 -0.02 0.04
 -2 0 -2 4309.64 46.07
 2 0 2 4339.49 46.36
 -2 0 -3 0.06 0.07
 2 0 3 0.07 0.07
 2 0 4 3300.6 35.71
 -2 0 -4 3143.32 34.99
 2 0 5 -0.03 0.06
 -2 0 -5 -0.02 0.07
 2 0 6 370.06 6.43
 -2 0 -6 347.75 5.82
 -2 0 -7 0.03 0.04
 2 0 7 0.03 0.05
 -2 0 -8 428.21 6.96
 2 0 8 459.93 7.62
 -2 0 -9 0.09 0.1
 2 0 9 -0.04 0.09
 2 1 -8 18.45 0.68
 -2 -1 8 20.45 0.83
 -2 1 3 1711.98 18.25
 2 -1 -3 1717.95 18.29
 2 -1 -2 80.57 1.68
 2 1 -2 75.79 1.71
 2 1 -1 2122.79 23
 -2 -1 1 2083.11 22.87
 2 1 0 84.99 1.97
 -2 1 0 84.87 1.89
 -2 -1 0 84.52 1.94
 2 -1 0 80.98 1.92
 -2 -1 -1 1773.59 20.22
 2 -1 1 1818.76 20.38
 2 1 1 1834.88 20.41
 -2 1 -1 1830.22 20.27
 2 -1 2 2.71 0.36
 -2 -1 -2 3.03 0.36
 2 1 2 2.86 0.37
 -2 1 -2 2.93 0.36
 -2 -1 -3 3153.21 34.79
 2 1 3 3208 34.96
 -2 1 -3 3206.59 34.91
 2 -1 3 3243.93 35.08
 2 1 4 66.27 2.02
 -2 1 -4 70.29 2.04
 2 -1 4 66.42 2.1
 -2 -1 -5 1031.11 12.97
 2 1 5 1039.9 13.23
 2 -1 6 3.34 0.5
 -2 1 -6 2.95 0.43
 -2 -1 -7 318.31 5.52
 2 1 7 338.28 5.99
 2 -1 7 320.42 5.99
 -2 1 -7 322.22 5.6
 2 1 8 2.86 0.49
 -2 -1 -8 2.94 0.44
 2 -1 8 3.81 0.57
 -2 1 -8 2.77 0.44
 -2 -1 -9 301.63 5.48
 2 1 9 325.33 6.14
 -2 1 -10 2.4 0.43
 2 -1 10 2.37 0.49
 2 2 -8 154.93 2.86
 -2 -2 8 164.75 3.21
 -2 -2 7 1.31 0.24
 2 2 -7 0.94 0.18
 -2 -2 6 361.03 5.35
 2 2 -6 365.87 4.9
 -2 -2 5 8.04 0.58
 2 2 -5 8.33 0.48
 -2 2 4 1589.13 16.51
 2 2 -4 1568.54 17.16
 2 -2 -4 1525.22 16.66
 -2 -2 4 1563.49 17.78
 2 2 -3 287.32 4.03
 -2 2 3 276.75 3.73
 2 -2 -3 281.09 3.84
 2 2 -2 2985.02 32.3
 -2 -2 2 3066.5 32.63
 2 2 -1 72.08 1.84
 -2 -2 1 74.03 1.85
 2 -2 -1 72.38 1.78
 -2 2 1 73.57 1.68
 -2 2 0 2188.03 23.89
 2 -2 0 2194.25 24.15
 2 2 0 2160.77 24.13
 -2 -2 0 2180.88 24.09
 -2 2 -1 104.75 2.3
 2 -2 1 101.94 2.41
 -2 -2 -1 105.96 2.34
 2 2 1 106.22 2.37
 2 -2 2 1192.24 14.32
 -2 -2 -2 1160.61 13.96
 2 2 2 1160.55 14.1
 -2 2 -2 1191.13 13.98
 -2 -2 -3 169.34 3.31
 2 2 3 166.45 3.41
 -2 2 -3 170.04 3.39
 2 -2 3 173.75 3.55
 -2 -2 -4 2428.36 26.79
 2 2 4 2372.44 26.91
 -2 2 -5 0.79 0.23
 -2 -2 -5 0.75 0.2
 2 -2 5 0.75 0.23
 2 2 5 0.86 0.23
 -2 -2 -6 470.66 7.07
 2 2 6 460.49 7.32
 2 -2 6 481.65 7.73
 -2 2 -6 489.65 7.44
 -2 -2 -7 74.14 2.25
 2 2 7 74.91 2.39
 2 -2 7 67.62 2.48
 -2 2 -7 72.76 2.35
 2 -2 8 336.8 6.48
 -2 2 -8 327.48 6.02
 -2 -2 -8 328.59 5.8
 -2 -2 -9 4.11 0.53
 -2 2 -9 4.1 0.57
 2 -2 9 5.64 0.73
 2 2 9 4.89 0.64
 2 -2 10 93.14 3.18
 -2 2 -10 95.59 2.88
 -2 -3 8 22.76 1.19
 2 3 -8 21.57 1
 2 3 -6 55.98 1.48
 -2 -3 6 53.54 1.78
 2 -3 -5 610.13 6.93
 -2 3 5 588.67 6.82
 -2 -3 5 618.38 8.41
 2 3 -5 602.28 7.62
 -2 -3 4 0.07 0.09
 2 3 -4 0.13 0.08
 2 3 -3 2655.15 28.77
 -2 3 3 2648.85 28.32
 2 -3 -3 2666.03 28.65
 -2 -3 3 2636.96 29.45
 -2 3 2 1.57 0.23
 2 3 -2 1.4 0.24
 -2 -3 2 1.41 0.27
 2 -3 -2 1.63 0.25
 -2 3 1 4240.04 44.73
 2 -3 -1 4243.19 45.1
 -2 -3 1 4328.85 45.38
 2 3 0 8.09 0.59
 -2 3 0 7.82 0.56
 2 -3 0 8.49 0.63
 -2 -3 0 8.43 0.62
 -2 -3 -1 2098.77 23.44
 -2 3 -1 2096.05 23.17
 2 3 1 2070.41 23.39
 2 -3 1 2058.91 23.49
 -2 -3 -2 457.18 6.63
 -2 3 -2 467.58 6.58
 2 3 2 461.69 6.63
 2 -3 2 451.33 6.77
 -2 -3 -3 2605.04 29.08
 2 3 3 2604.89 29.15
 -2 3 -3 2655.35 29.23
 2 -3 3 2669.29 29.6
 -2 3 -4 126.34 2.97
 2 -3 4 122.98 3.12
 -2 -3 -5 1028.64 12.7
 2 3 5 988.71 12.67
 2 -3 5 962.77 13.39
 -2 3 -5 1065 13.13
 -2 -3 -6 6.39 0.61
 2 3 6 4.76 0.54
 2 -3 6 6.71 0.73
 -2 -3 -7 259.31 4.75
 2 3 7 260.69 4.89
 2 3 8 62.23 2.18
 2 -3 8 65.01 2.53
 -2 3 -8 62.59 2.32
 -2 -3 -8 61.16 2.04
 -2 -3 -9 132.12 3.24
 2 -3 9 141.07 3.98
 -2 3 -9 137.51 3.59
 -2 -4 8 220.21 4.48
 2 4 -8 219.56 4.04
 -2 -4 7 0.86 0.24
 2 4 -7 0.88 0.2
 -2 4 6 392.07 4.81
 -2 -4 6 400.52 6.41
 2 4 -6 405.57 5.75
 2 -4 -6 406.05 5.09
 -2 4 5 51.44 1.27
 2 -4 -5 55.06 1.52
 -2 -4 5 53.53 1.96
 2 4 -5 52.34 1.55
 2 4 -4 769.35 9.69
 2 -4 -4 774.34 9.75
 -2 4 4 760.51 9.21
 -2 -4 4 770.94 10.49
 2 4 -3 8.23 0.59
 2 -4 -3 9.16 0.67
 -2 4 3 9.08 0.58
 -2 -4 3 8.49 0.73
 2 4 -2 2117.78 23.04
 -2 4 2 2069.3 23.01
 2 -4 -2 2026.84 23.55
 -2 -4 2 2089.44 23.87
 2 4 -1 66.45 1.81
 2 -4 -1 69.04 2
 -2 4 1 66.9 1.79
 -2 -4 1 63.85 2.06
 2 4 0 2116.41 24.05
 -2 4 0 2172.73 23.71
 2 -4 0 2169.89 24.19
 2 4 1 33.13 1.26
 -2 -4 -1 32.03 1.33
 2 4 2 2036.08 22.84
 2 -4 2 2014.66 23.33
 -2 4 -2 2006.22 22.95
 -2 -4 -2 2040.64 22.95
 2 -4 3 86.65 2.54
 -2 4 -3 94.41 2.44
 -2 -4 -3 95.4 2.42
 2 4 3 93.94 2.36
 2 -4 4 1044.46 13.41
 2 4 4 1016.08 12.81
 -2 4 -4 1025.17 12.99
 -2 -4 -4 1001.1 12.8
 2 4 5 175.73 3.65
 2 -4 5 175.17 4.13
 -2 4 -5 179.79 3.89
 -2 -4 -5 171.62 3.59
 -2 4 -6 300.75 5.49
 2 4 6 290.54 5.15
 2 -4 7 2.06 0.44
 -2 4 -7 2.51 0.44
 -2 -4 -7 2.12 0.37
 2 4 7 2.64 0.42
 2 4 8 164.62 3.76
 -2 4 -8 156.98 3.95
 2 -4 8 162.44 4.42
 -2 -4 -8 158.96 3.64
 -2 4 -10 37.14 1.81
 2 -4 10 35.68 1.99
 -2 -5 8 8.71 0.8
 2 5 -8 8.86 0.72
 2 5 -7 257.65 4.41
 -2 -5 7 268.52 5.07
 -2 -5 6 1.05 0.28
 2 -5 -6 0.86 0.2
 2 5 -6 1.22 0.24
 -2 5 6 1.18 0.19
 2 5 -5 279.77 4.68
 2 -5 -5 286.88 4.98
 -2 5 5 295.4 4.44
 -2 -5 5 287.31 5.48
 2 -5 -4 1.81 0.35
 -2 5 4 1.71 0.27
 2 5 -3 425.74 6.27
 2 -5 -3 437.28 6.96
 -2 5 3 421.69 6.14
 -2 -5 3 414.29 7.02
 2 5 -2 1.17 0.24
 -2 -5 2 1.25 0.3
 2 5 -1 530.91 7.26
 2 -5 -1 532.55 8.03
 -2 5 1 537.2 7.41
 -2 -5 1 512.2 7.9
 2 -5 0 74.14 2.3
 -2 5 0 74.43 2.1
 -2 -5 0 78.11 2.34
 2 5 0 77.29 2.05
 -2 5 -1 834.78 10.7
 2 -5 1 822.86 11.11
 -2 -5 -1 818.01 11.06
 2 5 1 834.62 10.72
 2 5 2 1.41 0.27
 -2 5 -2 1.27 0.26
 2 -5 2 1.27 0.29
 -2 -5 -2 1.48 0.3
 2 5 3 466.31 6.9
 -2 -5 -3 487.94 7.22
 2 -5 3 465.23 7.5
 -2 5 -3 483.4 7.19
 2 5 4 126.87 2.88
 -2 -5 -4 128.8 3.03
 2 5 5 180.51 3.65
 2 -5 5 177.28 4.21
 -2 5 -5 179.82 3.95
 -2 -5 -5 171.62 3.72
 2 -5 6 52.83 2.24
 -2 5 -6 52.38 2.04
 2 5 6 52.11 1.85
 -2 -5 -6 51.51 1.9
 2 -5 7 256.48 5.62
 -2 5 -7 252.05 5.18
 2 5 7 257.76 4.8
 -2 5 -8 10.38 0.94
 2 -5 8 10.98 1.07
 2 5 8 10.36 0.82
 -2 -5 -8 10.36 0.85
 -2 5 -9 72.21 2.58
 2 -5 9 76.35 2.99
 -2 5 -10 1.3 0.36
 2 -5 10 1.77 0.44
 2 6 -7 7.17 0.62
 -2 -6 7 6.31 0.69
 -2 -6 6 182.41 4.25
 2 6 -6 181.89 3.59
 -2 -6 5 11.69 0.97
 2 6 -5 12.87 0.84
 2 -6 -4 230.54 4.93
 -2 -6 4 216.31 4.79
 2 6 -4 222.22 4.11
 -2 6 4 224.15 4.08
 2 6 -3 1.14 0.25
 -2 6 3 0.74 0.2
 -2 -6 3 0.92 0.29
 2 -6 -3 1.05 0.3
 2 6 -2 229.31 4.27
 2 -6 -2 241.81 5.05
 -2 6 2 233.26 4.33
 -2 -6 2 248.5 5.06
 2 -6 -1 0.13 0.1
 -2 6 1 0.26 0.12
 2 -6 0 289.39 5.52
 2 -6 1 11.98 0.94
 -2 6 -1 11.98 0.84
 2 -6 2 342.79 6.07
 -2 6 -2 342.97 5.69
 2 -6 3 13.81 1.03
 -2 6 -3 12.77 0.9
 2 6 4 99.54 2.55
 2 -6 4 96.43 2.99
 -2 6 -4 99.67 2.76
 -2 -6 -4 95.96 2.77
 2 6 5 0.71 0.22
 -2 -6 -5 0.77 0.24
 2 -6 5 0.78 0.27
 -2 6 -5 0.59 0.21
 -2 6 -6 307.98 5.76
 2 -6 6 309.4 6.13
 2 6 6 321.25 5.48
 -2 -6 -6 300.65 5.71
 -2 -6 -7 67.06 2.38
 2 -6 7 68.81 2.71
 -2 6 -7 73.47 2.51
 2 6 7 68.67 2.21
 -2 6 -8 125.8 3.41
 2 -6 8 128.94 3.78
 -2 6 -9 5.14 0.65
 2 -6 9 4.84 0.72
 -2 -7 8 1.98 0.41
 2 7 -8 1.58 0.31
 2 7 -7 84.3 2.36
 -2 -7 7 80.63 2.65
 -2 -7 6 5.25 0.66
 2 7 -6 4.75 0.52
 2 -7 -5 155.7 4.1
 -2 7 5 151.63 3.29
 2 -7 -4 12.58 1.1
 -2 7 4 13.17 0.88
 -2 -7 4 9.04 0.93
 2 7 -4 9.95 0.77
 2 -7 -3 347.57 6.74
 -2 7 3 346.93 5.82
 -2 -7 3 354.52 6.68
 2 7 -3 360.26 5.8
 2 7 -2 1.69 0.31
 -2 -7 2 2.41 0.47
 2 7 -1 363.21 5.74
 2 -7 -1 360.73 6.74
 -2 7 1 340.19 5.84
 -2 -7 1 349.6 6.54
 2 7 0 4.05 0.47
 2 -7 0 4.33 0.62
 -2 7 0 4.51 0.53
 -2 -7 0 4.29 0.59
 2 7 1 447.43 6.63
 -2 7 -1 448.63 6.96
 2 -7 1 463.64 7.63
 2 -7 2 47.76 2.02
 -2 7 -2 47.7 1.81
 -2 -7 -2 48.81 2.01
 2 7 3 204.6 3.8
 2 -7 3 193.01 4.39
 -2 7 -3 188.05 3.98
 -2 -7 -3 193.64 4.29
 2 7 4 24.99 1.16
 2 -7 4 22.54 1.39
 -2 7 -4 24.33 1.32
 -2 -7 -4 22.73 1.34
 -2 7 -5 233.98 4.72
 2 -7 5 233.67 5.1
 2 7 5 240.36 4.32
 -2 -7 -5 231.57 4.92
 -2 -7 -6 68.79 2.46
 -2 7 -6 68.85 2.37
 2 7 6 69.29 2.07
 2 -7 6 65.83 2.52
 2 -7 7 172.79 4.43
 -2 7 -7 168.56 4.02
 2 -7 8 20.28 1.41
 -2 7 -8 19.23 1.25
 -2 7 -9 14.04 1.04
 2 -7 9 15.28 1.23
 -2 -8 8 32.31 1.66
 2 8 -8 33.29 1.5
 2 8 -7 2.21 0.37
 -2 -8 7 1.64 0.38
 -2 -8 6 72.99 2.58
 2 8 -6 71.63 2.19
 -2 -8 5 1.11 0.32
 2 8 -5 1.18 0.26
 2 -8 -4 129.91 3.92
 -2 8 4 133.29 3.2
 -2 -8 4 135.72 3.75
 2 8 -4 138.41 3.16
 -2 -8 3 1.05 0.33
 -2 8 3 1.45 0.32
 2 -8 -3 1.23 0.38
 2 8 -3 1.38 0.3
 2 -8 -2 271.51 5.95
 -2 8 2 276.59 5.08
 -2 -8 2 274.1 5.68
 2 8 -2 272.73 4.91
 2 8 -1 3.96 0.48
 2 -8 -1 4.35 0.66
 -2 8 1 4.55 0.55
 -2 -8 1 4.48 0.65
 2 8 0 341.24 5.56
 2 -8 0 342.38 6.63
 -2 8 0 334.38 5.78
 -2 -8 0 333.53 6.29
 2 8 1 0.66 0.2
 -2 -8 -1 0.66 0.25
 -2 8 -1 0.62 0.21
 2 8 2 278.5 4.79
 2 -8 2 277.3 5.63
 -2 8 -2 266.02 5.08
 -2 -8 -2 271.97 5.5
 2 8 3 1.25 0.27
 -2 8 -3 1.18 0.28
 -2 -8 -3 1.46 0.35
 2 -8 3 1.47 0.35
 2 8 4 123.97 2.9
 2 -8 4 121.09 3.48
 -2 8 -4 118.43 3.13
 -2 -8 -4 118.65 3.38
 2 8 5 6.33 0.6
 2 -8 5 5.05 0.69
 -2 -8 -5 6.19 0.74
 -2 8 -5 5.97 0.67
 2 8 6 125.35 3.01
 2 -8 6 137.48 3.76
 -2 -8 -6 131.64 3.67
 -2 8 -6 133.84 3.44
 -2 8 -7 2.05 0.41
 2 -8 7 1.84 0.41
 -2 8 -8 12.56 0.99
 2 -8 8 12.35 1.08
 -2 8 -9 0.27 0.14
 2 -8 9 0.07 0.08
 -2 -9 7 31.38 1.65
 2 9 -7 33.53 1.46
 -2 -9 6 1.88 0.41
 2 9 -6 1.32 0.29
 -2 -9 5 37.39 1.83
 2 9 -5 37.04 1.55
 -2 -9 4 0.32 0.18
 2 9 -4 0.24 0.13
 2 9 -3 58.47 1.97
 2 -9 -3 55.62 2.49
 -2 9 3 57.57 2.04
 -2 -9 3 57.87 2.37
 -2 -9 2 0.19 0.17
 -2 9 2 0.2 0.13
 2 9 -2 0.26 0.14
 2 -9 -2 0.09 0.11
 2 -9 -1 91.59 3.2
 -2 9 1 96.75 2.72
 -2 -9 1 85.85 2.97
 2 9 -1 93.58 2.5
 -2 9 0 0.26 0.14
 2 -9 0 0.35 0.2
 -2 9 -2 0.28 0.14
 2 -9 2 0.43 0.2
 2 -9 3 45.94 2.06
 -2 9 -3 45.47 1.8
 -2 9 -4 0.03 0.06
 -2 -9 -4 0.44 0.21
 2 9 4 0.25 0.14
 2 -9 4 0.25 0.16
 2 9 5 53.83 1.89
 2 -9 5 47.83 2.13
 -2 9 -5 50.24 1.95
 -2 -9 -5 55.41 2.31
 2 -9 6 0.14 0.12
 -2 9 -6 0.06 0.11
 -2 9 -7 19.67 1.21
 2 -9 7 18.62 1.32
 -2 -10 6 22.87 1.38
 2 10 -6 23.84 1.22
 2 10 -5 1.27 0.28
 -2 -10 5 1.33 0.33
 -2 -10 3 0.21 0.14
 2 10 -3 0.21 0.12
 2 -10 -2 25.82 1.62
 -2 10 2 25.36 1.35
 -2 -10 2 22.94 1.42
 2 10 -2 24.6 1.2
 -2 -10 1 0.45 0.2
 2 10 -1 0.49 0.18
 -2 10 1 0.26 0.15
 2 -10 -1 0.48 0.23
 2 -10 0 42.9 2.06
 -2 10 0 44.91 1.83
 -2 -10 0 44.31 2.06
 2 10 0 42.41 1.57
 -2 -10 -1 0.7 0.25
 2 10 1 0.75 0.2
 2 -10 2 29.07 1.6
 -2 10 -2 31.6 1.45
 -2 -10 -2 31.83 1.71
 2 10 2 32.49 1.4
 2 10 3 0.4 0.16
 -2 10 -3 0.27 0.15
 -2 -10 -3 0.5 0.23
 2 -10 3 0.44 0.21
 -2 -10 -4 18.5 1.35
 2 -10 4 16.64 1.22
 -2 10 -4 17.49 1.11
 2 10 4 18.33 1.08
 2 -10 5 2.71 0.49
 -2 10 -5 3.22 0.48
 -2 -11 1 23.44 1.35
 2 11 -1 25.53 1.2
 2 11 0 0.47 0.16
 -2 -11 0 0.22 0.17
 -2 11 0 0.25 0.15
 2 -11 0 0.51 0.21
 2 -11 1 32.69 1.68
 -2 11 -1 30.77 1.44
 -2 -11 -1 27.11 1.51
 2 11 1 28.67 1.29
 -2 -11 -2 0.03 0.1
 2 11 2 0.07 0.08
 -2 -11 -3 17.25 1.27
 -3 0 6 0.01 0.02
 3 0 -6 0.01 0.02
 3 0 -5 1345.88 14.4
 -3 0 5 1307.41 14.73
 -3 0 3 456.56 6.05
 3 0 -3 454.93 6.16
 3 0 -2 0.02 0.04
 -3 0 1 1316.95 15.37
 3 0 -1 1305.07 15.49
 3 0 0 -0.02 0.06
 -3 0 0 0.02 0.05
 3 0 1 3983.07 43.5
 -3 0 -1 4042.23 43.28
 -3 0 -2 0.02 0.07
 3 0 2 -0.03 0.07
 -3 0 -4 0.03 0.04
 3 0 4 -0.03 0.09
 -3 0 -5 608.17 8.85
 3 0 5 607.13 9.16
 3 0 6 -0.03 0.09
 -3 0 -6 0.03 0.04
 -3 0 -7 462.47 7.35
 3 0 7 452.23 7.74
 -3 0 -8 -0.03 0.05
 3 0 8 0.04 0.1
 -3 0 -9 176.72 4.1
 3 0 9 187.05 4.62
 -3 0 -10 0.16 0.12
 3 1 -8 56.86 1.16
 -3 -1 6 525.7 6.86
 3 1 -6 527.39 6.42
 3 1 -5 12.29 0.56
 3 -1 -5 11.22 0.39
 -3 -1 5 12.57 0.68
 -3 1 4 1179.2 13.13
 3 1 -4 1160.41 13.42
 -3 -1 4 1173.62 13.7
 3 -1 -4 1180.74 13.25
 -3 1 3 88.38 1.9
 3 -1 -3 88.29 2
 -3 -1 3 92.3 2.12
 -3 1 2 685.9 8.58
 3 -1 -2 677.51 8.76
 3 1 -2 666.5 8.76
 -3 -1 2 691.61 8.73
 -3 -1 1 181.93 3.44
 3 -1 -1 185.42 3.56
 -3 1 1 181.33 3.39
 3 1 -1 184.72 3.52
 -3 -1 0 2536.33 28.12
 3 -1 0 2518.74 28.28
 3 1 0 2521.55 28.33
 -3 1 0 2568.96 28.11
 -3 -1 -1 111.92 2.65
 3 1 1 110.18 2.74
 3 -1 1 109.2 2.76
 -3 1 -1 115.32 2.68
 -3 -1 -2 2627.39 29.37
 3 1 2 2574.69 29.62
 3 -1 2 2626.96 29.69
 -3 1 -2 2670.63 29.39
 -3 -1 -3 67.82 2.1
 -3 1 -3 64.91 2.07
 3 1 3 70.32 2.21
 3 -1 3 71.91 2.28
 -3 -1 -4 1175.45 14.52
 3 -1 4 1167.82 14.94
 -3 1 -4 1133.2 14.54
 3 1 4 1184.18 14.8
 -3 -1 -5 61.58 2.07
 3 1 5 61.73 2.2
 -3 1 -5 65.33 2.17
 3 -1 5 59 2.19
 -3 -1 -6 340.44 5.86
 3 -1 6 332.9 6.17
 3 1 6 332.14 6.13
 -3 -1 -7 0.06 0.06
 3 1 7 0.03 0.05
 -3 -1 -8 403.15 6.95
 -3 1 -8 410.87 7.06
 3 1 8 429.4 7.55
 3 -1 8 428.37 7.78
 -3 1 -9 15.3 1.12
 -3 -1 -9 14.66 1.07
 3 1 9 15.69 1.24
 3 -1 9 14.91 1.24
 -3 -2 8 9.24 0.69
 3 2 -8 7.42 0.52
 3 2 -7 204.3 3.31
 -3 -2 7 220.73 3.99
 -3 -2 6 33.91 1.37
 3 2 -6 31.7 1.06
 -3 2 5 844.36 9.09
 3 2 -5 824.99 9.88
 -3 -2 5 844.88 10.52
 3 -2 -4 60.04 1.49
 -3 2 4 59.86 1.38
 -3 -2 4 57.38 1.77
 3 2 -4 56.69 1.59
 -3 2 3 1216.93 14.13
 3 2 -3 1230.54 14.55
 3 -2 -3 1260.22 14.45
 -3 -2 3 1226.89 14.72
 3 2 -2 44.76 1.52
 -3 2 2 41.97 1.39
 3 -2 -2 40.37 1.45
 -3 -2 2 42.78 1.49
 -3 -2 1 2137.82 24.05
 -3 2 1 2112.87 23.81
 3 -2 -1 2119.1 24.08
 3 2 -1 2148.91 24.1
 -3 -2 0 435.32 6.43
 3 2 0 436.31 6.56
 -3 2 0 426.34 6.34
 3 -2 0 419.02 6.52
 3 -2 1 1101.26 14.02
 -3 -2 -1 1131.7 13.82
 -3 2 -1 1104.7 13.75
 3 2 1 1126.42 13.95
 -3 -2 -2 38.39 1.53
 3 2 2 37.74 1.54
 -3 2 -2 40.92 1.59
 -3 -2 -3 889.03 11.45
 3 2 3 878.16 11.59
 -3 2 -3 883.85 11.56
 3 -2 3 867.76 11.76
 -3 -2 -4 27.84 1.32
 -3 2 -4 28.24 1.38
 3 2 4 28.91 1.42
 3 -2 4 27.63 1.44
 -3 2 -5 420.46 6.8
 3 -2 5 411.38 7.12
 -3 -2 -6 24.04 1.29
 -3 2 -6 26.68 1.43
 3 2 6 25.03 1.42
 -3 -2 -7 329.98 5.91
 3 -2 7 344.27 6.47
 -3 2 -7 340.75 6.22
 3 2 7 333.42 6.27
 3 2 8 1.78 0.4
 -3 2 -8 1.54 0.36
 3 -2 8 1.48 0.4
 -3 -2 -8 1.43 0.33
 -3 -2 -9 128.72 3.44
 -3 2 -9 125.69 3.44
 3 -2 9 129.27 3.84
 3 2 9 139.58 3.87
 -3 2 -10 4.01 0.58
 3 -2 10 4.35 0.7
 -3 -3 8 188.68 3.97
 3 3 -8 185.96 3.51
 -3 -3 7 6.35 0.61
 3 3 -7 6.41 0.52
 -3 -3 6 443.62 6.92
 3 3 -6 461.07 6.37
 3 -3 -5 9.15 0.52
 -3 3 5 7.91 0.44
 3 -3 -4 912.65 11.05
 -3 3 4 892.54 10.75
 -3 3 3 6.5 0.52
 3 -3 -3 7.38 0.6
 -3 3 2 1873.22 21.58
 3 -3 -2 1978.57 22.17
 -3 3 1 49.97 1.67
 -3 -3 1 53.83 1.8
 -3 3 0 1482.16 17.32
 3 -3 0 1485.63 17.69
 -3 -3 0 1449.47 17.38
 -3 -3 -1 7.87 0.68
 3 3 1 8.98 0.72
 -3 3 -1 8.42 0.69
 3 -3 1 7.15 0.68
 -3 -3 -2 603.58 8.35
 3 -3 2 597.13 8.9
 3 3 2 575.76 8.35
 -3 3 -2 601.15 8.52
 -3 -3 -3 14.55 0.93
 3 3 3 13.91 0.93
 3 -3 3 13.09 1.01
 -3 3 -3 15.2 1
 -3 3 -4 588.31 8.79
 -3 -3 -4 577.31 8.34
 3 3 4 586.13 8.52
 3 -3 4 591.92 9.14
 -3 -3 -5 20.78 1.15
 3 3 5 22.38 1.27
 3 -3 5 20.59 1.32
 -3 3 -5 21.34 1.28
 -3 -3 -6 270.5 5.05
 3 -3 6 278.19 5.72
 -3 3 -6 279.4 5.44
 3 3 6 280.54 5.35
 -3 -3 -7 77.06 2.43
 -3 3 -7 80.64 2.66
 3 -3 7 73.68 2.79
 -3 -3 -8 138.62 3.44
 3 3 8 150.12 3.84
 -3 3 -8 144.4 3.8
 3 -3 8 144.77 4.09
 3 3 9 0.14 0.13
 -3 3 -9 0.18 0.13
 -3 -3 -9 0.24 0.14
 3 -3 9 0.29 0.19
 -3 3 -10 27.88 1.55
 3 -3 10 28.91 1.79
 -3 -4 8 7.16 0.75
 3 4 -8 5.89 0.57
 -3 -4 7 232.94 4.72
 3 4 -7 245.88 4.2
 -3 -4 6 1.11 0.29
 3 -4 -6 1.03 0.16
 -3 4 6 1.03 0.14
 3 4 -6 1.4 0.26
 3 4 -5 355.78 5.46
 -3 4 5 336.6 4.87
 -3 -4 5 343.07 6.14
 3 4 -4 29.07 1.24
 -3 4 4 32.86 1.2
 -3 -4 4 31.89 1.51
 3 4 -3 760.34 9.82
 -3 4 3 741.39 9.65
 3 4 -2 7.28 0.63
 -3 4 2 6.86 0.59
 3 -4 -2 7.27 0.69
 -3 -4 2 6.84 0.67
 3 4 -1 975.71 12.68
 -3 -4 1 1176.27 13.95
 -3 4 0 98.79 2.6
 -3 -4 0 101.64 2.66
 3 4 0 105.14 2.65
 -3 4 -1 805.12 10.66
 3 -4 1 799.44 11.05
 3 4 1 792.81 10.68
 -3 -4 -1 798.95 10.75
 3 4 2 16.38 1
 3 -4 2 14.96 1.05
 -3 4 -2 14.84 0.97
 -3 -4 -2 16.16 1.01
 -3 4 -3 757.55 10.46
 3 4 3 785.61 10.45
 -3 -4 -3 765.97 10.32
 -3 -4 -4 6.76 0.65
 -3 -4 -5 376.92 6.3
 -3 4 -5 384.36 6.61
 3 4 5 388.86 6.44
 3 -4 5 368.85 6.95
 -3 -4 -6 12.97 0.95
 3 4 6 13.33 0.99
 -3 4 -6 13.09 1.04
 3 -4 6 12.05 1.1
 -3 -4 -7 161.11 3.8
 3 4 7 166.94 3.95
 3 -4 7 167.02 4.39
 -3 4 -7 167.92 4.18
 -3 -4 -8 2.11 0.4
 3 4 8 1.69 0.37
 -3 4 -8 2.22 0.44
 3 -4 8 2.01 0.47
 -3 4 -9 49.16 2.13
 3 -4 9 52.48 2.42
 3 -4 10 -0.04 0.13
 -3 4 -10 0.04 0.1
 -3 -5 8 70.12 2.61
 3 5 -8 67.92 2.13
 -3 -5 7 0.99 0.29
 3 5 -7 1.09 0.24
 -3 -5 6 159.07 3.94
 3 5 -6 152.27 3.22
 -3 5 5 25.3 1.06
 3 -5 -5 26.86 1.29
 3 5 -4 237.91 4.33
 -3 5 4 252.84 4.32
 3 -5 -4 248.62 4.83
 -3 -5 4 234.88 4.96
 3 5 -3 30.19 1.29
 -3 -5 3 28.12 1.49
 -3 5 2 451.62 6.83
 3 -5 -2 442.6 7.37
 3 5 -2 450.76 6.66
 -3 -5 2 452.22 7.32
 3 5 -1 10.49 0.78
 3 -5 -1 11.38 0.93
 -3 5 1 12.44 0.86
 -3 -5 1 9.96 0.85
 3 5 0 499.58 7.39
 -3 -5 0 500.23 7.69
 3 5 1 18.32 1.04
 -3 5 -1 20.64 1.14
 3 -5 1 17.97 1.18
 -3 -5 -1 21.96 1.2
 3 -5 3 21.68 1.33
 -3 5 -3 9.54 0.82
 3 5 4 426.28 6.69
 -3 5 -4 418.05 6.93
 3 -5 4 410.05 7.32
 -3 -5 -4 418.79 6.74
 3 5 5 9.91 0.82
 -3 5 -5 10.15 0.88
 3 -5 5 10.27 0.99
 -3 -5 -5 10.3 0.85
 3 5 6 262.79 5.06
 -3 -5 -6 248.18 4.94
 -3 5 -7 9.64 0.92
 3 -5 7 9.99 1.04
 3 5 7 10.84 0.91
 -3 -5 -7 10.19 0.87
 3 5 8 100.47 2.97
 -3 5 -8 101.54 3.19
 3 -5 8 98.35 3.36
 -3 -5 -8 99.55 2.91
 -3 5 -9 0.8 0.28
 3 -5 9 0.77 0.3
 3 6 -7 60.72 1.97
 -3 -6 7 61.29 2.4
 -3 -6 6 -0.04 0.05
 3 6 -6 -0.02 0.05
 -3 -6 5 92.98 2.97
 3 6 -5 98.69 2.63
 3 6 -4 13.07 0.89
 -3 6 4 11.24 0.82
 3 -6 -4 10.95 0.98
 -3 -6 4 11.4 0.99
 3 6 -3 340.27 5.48
 -3 6 3 335.78 5.69
 3 -6 -3 331.14 6.42
 -3 -6 3 326.65 6.21
 3 6 -2 1.99 0.34
 -3 6 2 1.61 0.33
 3 -6 -2 2.23 0.46
 -3 -6 2 2.2 0.44
 3 6 -1 313.52 5.1
 -3 6 1 293.91 5.35
 3 -6 -1 300.48 6
 -3 -6 1 296.07 5.72
 3 6 0 19.06 1.03
 -3 -6 0 21.97 1.3
 3 6 1 368.14 5.99
 -3 6 -1 355.23 6.06
 3 -6 1 355.81 6.54
 -3 -6 -1 367.69 6.36
 -3 6 -2 33.57 1.54
 3 6 2 35.19 1.52
 3 -6 2 32.71 1.67
 -3 -6 -2 32.45 1.57
 -3 6 -3 306.73 5.61
 3 -6 3 304.65 6.05
 -3 -6 -3 316.79 5.65
 3 6 4 0.9 0.24
 3 -6 4 0.95 0.3
 -3 6 -4 1.24 0.31
 -3 -6 -4 1.15 0.29
 3 -6 5 240.79 5.35
 -3 6 -5 240.86 4.93
 3 6 6 33.06 1.51
 -3 6 -6 29.98 1.61
 3 -6 6 33.62 1.85
 -3 -6 -6 31.63 1.57
 3 6 7 138.77 3.39
 -3 -6 -7 130.96 3.44
 3 -6 8 8.39 0.96
 -3 6 -8 8.74 0.88
 3 -6 9 41.3 2.14
 -3 6 -9 40.64 1.95
 -3 6 -10 0.41 0.2
 3 -6 10 0.49 0.21
 -3 -7 7 0.32 0.2
 3 7 -7 0.2 0.13
 -3 -7 6 44.65 2.04
 3 7 -6 47.13 1.75
 -3 -7 5 1.58 0.39
 3 7 -5 1.11 0.26
 -3 7 4 145.18 3.43
 3 -7 -4 143.15 4.12
 -3 -7 4 156.14 4.16
 3 7 -4 153.28 3.37
 -3 -7 3 0.8 0.28
 3 7 -3 0.86 0.24
 -3 7 2 333.98 5.91
 3 -7 -2 327.89 6.66
 3 7 -1 7.84 0.67
 -3 7 1 7.4 0.73
 3 -7 -1 7.05 0.84
 -3 -7 1 7.56 0.81
 -3 7 0 269.58 5.09
 3 7 0 266.94 4.8
 3 7 1 33.41 1.39
 -3 7 -1 33.27 1.57
 3 -7 1 35.86 1.84
 -3 -7 -1 34.57 1.66
 -3 7 -3 12.89 0.97
 3 -7 3 11.64 1.02
 -3 -7 -3 10.58 0.92
 3 7 4 150.19 3.37
 -3 7 -4 150.45 3.67
 3 -7 4 149.87 3.99
 -3 -7 -4 150.59 3.68
 -3 7 -5 15.42 1.12
 3 -7 5 15.46 1.26
 3 7 5 16.89 1.05
 -3 -7 -5 15.31 1.1
 3 -7 6 134.96 3.89
 3 7 6 143.83 3.43
 -3 7 -6 135.96 3.61
 -3 -7 -6 132.3 3.56
 3 -7 7 20.25 1.46
 -3 7 -8 22.02 1.37
 3 -7 8 19.58 1.44
 -3 7 -9 0.24 0.14
 3 -7 9 0.21 0.14
 -3 -8 7 51.69 2.22
 3 8 -7 49.72 1.85
 -3 -8 6 0.49 0.21
 3 8 -6 0.36 0.16
 -3 -8 5 38.59 1.92
 3 8 -5 43.49 1.72
 3 8 -3 139.5 3.3
 -3 8 3 136.45 3.46
 3 -8 -3 138.91 4.16
 -3 -8 3 148.36 4.08
 -3 8 2 0.85 0.26
 -3 -8 2 1.26 0.35
 3 8 -2 0.81 0.23
 3 -8 -2 0.85 0.32
 3 8 -1 168.36 3.56
 -3 -8 1 164.75 4.24
 -3 8 0 0.37 0.17
 3 8 0 0.27 0.13
 3 -8 0 0.29 0.17
 -3 -8 0 0.37 0.2
 3 8 1 130.27 2.97
 -3 8 -1 122.96 3.26
 3 -8 1 127.49 3.72
 -3 -8 -1 126.04 3.47
 3 -8 2 0.04 0.1
 3 8 2 0.02 0.08
 3 8 3 77.36 2.21
 -3 -8 -3 73 2.51
 3 8 4 0.37 0.15
 -3 -8 -4 0.1 0.1
 3 -8 4 0.15 0.13
 -3 8 -4 0.12 0.12
 -3 8 -5 88.04 2.76
 3 -8 5 86.02 3.02
 -3 -8 -6 1.16 0.31
 3 8 6 1.06 0.27
 3 -8 6 1.28 0.36
 -3 8 -6 1.36 0.33
 -3 8 -8 0.3 0.17
 3 -8 8 0.19 0.13
 -3 -9 7 3.34 0.54
 3 9 -7 4.24 0.51
 -3 -9 6 27.4 1.58
 3 9 -6 29.17 1.36
 -3 -9 5 0.94 0.29
 3 9 -5 0.99 0.25
 -3 -9 3 0.04 0.1
 3 9 -3 0.05 0.08
 3 -9 -2 47.07 2.36
 -3 9 2 51.62 2.05
 -3 -9 2 53.1 2.32
 3 9 -2 50.36 1.86
 3 9 -1 3.65 0.48
 3 -9 -1 3.04 0.58
 -3 9 1 3.74 0.54
 -3 -9 1 3.55 0.57
 3 9 0 52.65 1.84
 3 -9 0 50.24 2.38
 -3 -9 0 48.59 2.12
 3 9 1 0.44 0.16
 -3 -9 -1 0.53 0.23
 3 -9 1 0.32 0.19
 -3 9 -1 0.52 0.2
 3 9 2 36.25 1.47
 -3 9 -2 37.48 1.69
 3 -9 2 38.48 1.97
 -3 -9 -2 33.43 1.71
 -3 -9 -3 0.23 0.16
 3 9 3 0.45 0.17
 3 9 4 35.55 1.51
 -3 9 -4 35.74 1.66
 3 -9 4 36.64 1.87
 -3 -9 -4 34.72 1.75
 3 -9 5 0.04 0.1
 -3 9 -5 -0.03 0.05
 -3 9 -6 26.98 1.48
 3 -9 6 27.39 1.64
 -3 -10 4 0.14 0.14
 3 10 -4 0.24 0.13
 -3 -10 3 21.61 1.43
 3 10 -3 22.03 1.19
 -3 -10 1 24.63 1.51
 3 10 -1 26.74 1.27
 -3 -10 0 0.26 0.17
 3 10 0 0.09 0.08
 3 -10 0 0.13 0.14
 -3 10 0 0.12 0.12
 3 10 1 27.72 1.28
 -3 10 -1 26.31 1.42
 3 -10 1 27.75 1.7
 -3 -10 -1 25.23 1.51
 -3 -10 -2 1.35 0.34
 3 10 2 1.09 0.26
 3 -10 2 1.23 0.35
 -3 10 -2 1.26 0.31
 -3 10 -3 18.97 1.19
 3 -10 3 19.62 1.35
 3 10 4 3.43 0.45
 -3 10 -4 2.86 0.47
 3 -10 4 3.65 0.57
 -3 -10 -4 4.06 0.59
 4 0 -7 -0.01 0.02
 -4 0 7 -0.01 0.02
 4 0 -6 529.42 6.78
 -4 0 6 507.02 7.21
 4 0 -5 -0.02 0.06
 -4 0 5 0.04 0.06
 -4 0 4 636.39 8.36
 4 0 -4 655.72 8.53
 4 0 -3 0.02 0.03
 -4 0 3 -0.02 0.05
 -4 0 2 758.11 9.83
 4 0 -2 756.3 10.07
 -4 0 1 0.02 0.07
 4 0 -1 -0.02 0.08
 -4 0 0 1644.47 19.63
 4 0 0 1707.01 19.91
 4 0 1 0.03 0.06
 -4 0 -1 0.1 0.1
 4 0 2 1329.15 16.68
 -4 0 -2 1340.62 16.45
 -4 0 -3 -0.03 0.06
 4 0 3 0.03 0.05
 4 0 4 566.34 8.88
 -4 0 -4 587.56 8.66
 4 0 6 218.64 4.86
 4 0 7 0.04 0.1
 -4 0 -7 -0.03 0.07
 -4 0 -8 112.85 3.2
 4 0 8 115.69 3.52
 4 0 9 -0.04 0.06
 -4 0 -9 -0.03 0.05
 -4 -1 7 179.13 3.66
 4 1 -7 180.14 3.15
 4 1 -6 10.26 0.67
 4 -1 -6 10.13 0.53
 -4 -1 6 9.09 0.74
 -4 1 6 8.97 0.56
 -4 1 5 637.97 8.18
 4 -1 -5 656.88 8.36
 4 1 -5 635.07 8.59
 -4 1 4 10.26 0.66
 4 -1 -4 10.82 0.71
 4 1 -4 11.36 0.76
 -4 -1 4 10.37 0.72
 -4 -1 3 506.61 7.21
 -4 1 3 500.55 7.07
 4 -1 -3 512.73 7.32
 4 1 -3 518.79 7.34
 4 -1 -2 0.19 0.11
 -4 -1 2 0.13 0.09
 -4 1 2 0.17 0.1
 -4 -1 1 1345.92 16.31
 -4 1 1 1393.31 16.32
 4 -1 -1 1335.76 16.54
 4 1 -1 1331.85 16.42
 -4 1 0 0.48 0.18
 4 1 0 0.66 0.21
 4 -1 0 0.45 0.18
 -4 -1 0 0.49 0.18
 -4 -1 -1 1170.27 14.18
 -4 1 -1 1169.5 14.35
 4 1 1 1151.69 14.35
 -4 -1 -2 28.9 1.4
 4 1 2 28.11 1.43
 -4 1 -2 29.68 1.45
 4 -1 2 29.04 1.53
 -4 -1 -3 763.89 10.44
 -4 1 -3 757.15 10.51
 4 1 3 749.78 10.65
 -4 -1 -4 79.18 2.5
 4 -1 4 81.41 2.72
 4 1 4 80.7 2.62
 -4 1 -4 84.43 2.62
 -4 -1 -5 308.91 5.75
 4 1 5 302.96 5.94
 4 -1 5 316.35 6.16
 -4 1 -5 325.5 5.93
 -4 -1 -6 13.37 1.01
 -4 1 -6 14.31 1.06
 4 1 6 15.41 1.17
 4 -1 6 15.22 1.23
 -4 -1 -7 256.86 5.18
 4 -1 7 257.88 5.67
 -4 1 -7 257.99 5.27
 4 1 7 264.29 5.56
 -4 -1 -8 7.47 0.77
 4 1 8 7.32 0.83
 4 -1 8 7.39 0.85
 -4 1 -8 6.36 0.73
 -4 -1 -9 36.98 1.73
 4 1 9 42 2.05
 4 -1 9 39.17 2.03
 -4 1 -9 35.13 1.72
 -4 -2 7 9.75 0.87
 4 2 -7 9.3 0.71
 4 -2 -6 319.36 4.27
 -4 -2 6 317.1 5.8
 -4 2 5 2.75 0.31
 4 -2 -5 2.83 0.35
 -4 2 4 341.12 5.15
 4 -2 -4 343.3 5.41
 -4 2 3 0.26 0.12
 -4 -2 3 0.29 0.14
 4 -2 -3 0.38 0.16
 4 2 -3 0.3 0.14
 -4 -2 2 840.22 10.98
 4 2 -2 837.71 11.02
 4 -2 -2 864.66 11.35
 -4 2 2 822.4 10.82
 -4 -2 1 30.92 1.38
 4 2 -1 28.56 1.29
 -4 -2 0 1048.45 13.18
 -4 2 0 1036.62 13.17
 4 2 0 1006.99 13.45
 4 -2 0 1025.33 13.45
 -4 -2 -1 3.32 0.46
 -4 2 -1 3.3 0.47
 4 2 1 3.53 0.5
 4 -2 1 3.18 0.48
 4 -2 2 412.88 6.95
 -4 -2 -2 419.88 6.74
 -4 2 -2 423.6 6.85
 -4 -2 -3 12.98 0.94
 4 2 3 12.7 0.97
 4 -2 3 10.97 0.93
 -4 2 -3 12.95 0.98
 -4 -2 -4 349.8 6.06
 4 2 4 353.99 6.29
 4 2 5 0.89 0.27
 -4 2 -5 0.48 0.2
 4 -2 5 0.36 0.18
 -4 -2 -5 0.57 0.21
 -4 -2 -6 338.24 6.06
 4 2 6 348.95 6.43
 -4 2 -6 348.22 6.25
 -4 2 -7 1.12 0.31
 4 2 7 1.2 0.34
 4 -2 7 0.92 0.31
 -4 -2 -7 1.08 0.29
 -4 2 -8 149.83 3.82
 4 -2 8 156.84 4.38
 -4 2 -9 1.49 0.37
 4 -2 9 1.93 0.47
 -4 -2 -9 1.6 0.37
 4 2 9 2.3 0.49
 -4 2 -10 27.58 1.56
 4 -2 10 27.19 1.78
 -4 -3 7 189.66 4.62
 4 3 -7 200.56 4.06
 4 3 -6 1.03 0.24
 -4 -3 6 1.1 0.31
 4 -3 -6 1.04 0.18
 -4 3 5 227.05 3.8
 4 3 -5 236.82 4.19
 4 -3 -5 237.12 4.11
 -4 -3 5 231.14 4.69
 -4 3 4 0.92 0.21
 4 3 -4 1.28 0.27
 -4 -3 4 1.09 0.28
 4 -3 -4 1.3 0.3
 4 3 -3 279.33 5.01
 -4 3 3 284.94 4.81
 -4 -3 3 293.9 5.13
 4 3 -2 58.48 1.97
 4 3 -1 753.02 10.34
 -4 3 1 757.47 10.25
 4 -3 -1 734.44 10.66
 -4 -3 1 751.42 10.24
 -4 -3 0 4.51 0.54
 4 3 0 3.68 0.49
 -4 3 0 4.87 0.57
 -4 -3 -1 418.99 6.6
 -4 3 -1 415.59 6.7
 4 3 1 414.19 6.66
 4 3 2 1.31 0.3
 4 -3 2 1.95 0.39
 -4 3 -2 1.33 0.31
 -4 -3 -2 1.26 0.29
 -4 -3 -4 35.07 1.59
 -4 3 -4 35.34 1.68
 4 -3 4 32.94 1.74
 4 3 4 35.16 1.68
 4 3 5 333.85 6.13
 -4 3 -5 338.52 6.24
 4 -3 5 332.26 6.56
 -4 -3 -6 48.36 1.96
 -4 3 -6 52.94 2.19
 4 3 6 51.66 2.12
 4 -3 6 49.08 2.23
 -4 -3 -7 203.7 4.43
 4 3 7 211.88 4.78
 4 -3 7 205.39 4.96
 -4 3 -7 210.02 4.73
 -4 3 -8 0.18 0.13
 4 3 8 0.56 0.24
 -4 -3 -8 0.34 0.18
 4 -3 8 0.33 0.19
 -4 -3 -9 38.03 1.75
 4 3 9 40.76 2.07
 -4 3 -9 39.94 1.92
 4 -3 9 39.62 2.03
 -4 3 -10 3.09 0.51
 4 -3 10 3.72 0.65
 -4 -4 7 4.4 0.67
 4 4 -7 5 0.59
 4 4 -6 211 4.17
 -4 -4 6 198.65 4.68
 4 4 -5 43 1.6
 4 -4 -5 42.36 1.68
 -4 4 5 38.62 1.39
 -4 -4 5 42.95 1.89
 -4 4 4 217.91 4.14
 4 -4 -4 232.49 4.57
 -4 -4 4 230.02 4.7
 -4 -4 3 0.18 0.13
 4 4 -3 0.2 0.12
 -4 4 2 317.75 5.51
 4 -4 -2 323.41 5.95
 4 4 -2 314.02 5.39
 -4 4 1 2.3 0.4
 4 -4 -1 2.31 0.43
 4 4 -1 2.06 0.36
 -4 -4 1 2.06 0.37
 4 4 0 379.1 6.33
 -4 4 0 364.04 6.28
 4 -4 0 376.74 6.72
 4 -4 1 45.64 2.01
 -4 4 -1 46.67 1.89
 -4 -4 -2 434.58 7.1
 4 4 2 424.66 7.18
 4 -4 2 436.07 7.59
 -4 -4 -3 14.85 1.03
 -4 4 -3 15.85 1.13
 4 4 3 14.58 1.03
 4 -4 3 13.51 1.09
 -4 -4 -4 371.98 6.3
 4 4 4 373.57 6.45
 -4 4 -4 378.87 6.63
 -4 -4 -5 38.58 1.69
 4 4 5 37.63 1.73
 -4 4 -5 41.59 1.87
 4 -4 5 36.16 1.9
 -4 -4 -6 178.68 4.01
 -4 4 -6 173.76 4.21
 4 -4 6 177.45 4.49
 4 4 6 186.18 4.23
 -4 -4 -7 1.87 0.39
 4 4 7 2.29 0.44
 4 -4 7 2.09 0.47
 -4 -4 -8 54.61 2.12
 4 4 8 58.4 2.35
 -4 4 -9 0.48 0.22
 4 -4 9 0.34 0.2
 -4 4 -10 20.06 1.34
 4 -4 10 18.31 1.46
 -4 -5 7 83.52 3.18
 4 5 -7 85.44 2.6
 4 5 -6 11.52 0.87
 -4 -5 6 9.95 0.98
 4 5 -5 180.45 3.75
 -4 -5 5 177.27 4.24
 4 5 -4 45.26 1.7
 -4 5 4 41.48 1.6
 4 -5 -4 42.1 1.87
 -4 -5 4 43.31 1.94
 -4 5 3 343.81 5.92
 4 -5 -3 354.71 6.6
 -4 -5 3 353.61 6.33
 4 5 -3 368.63 5.9
 4 5 -2 5.73 0.61
 -4 5 2 6.12 0.66
 4 -5 -2 5.64 0.73
 -4 -5 2 5.88 0.67
 -4 5 1 252.97 5
 4 -5 -1 255.06 5.54
 4 5 -1 259.78 4.88
 -4 -5 1 251.28 5.04
 4 5 0 2.89 0.44
 -4 -5 0 3.06 0.47
 -4 5 -1 389.09 6.74
 4 5 1 409.83 6.68
 -4 -5 -1 409.79 6.73
 4 5 2 1.35 0.31
 -4 -5 -2 1.31 0.31
 -4 5 -2 1.2 0.31
 4 -5 2 1.26 0.35
 4 5 3 467.45 7.44
 -4 5 -3 460.89 7.6
 4 -5 3 457.73 8.09
 -4 -5 -3 451.89 7.29
 -4 5 -5 175.25 4.2
 4 -5 5 170.52 4.44
 -4 5 -6 2.64 0.48
 4 5 6 1.82 0.38
 4 -5 6 2.49 0.5
 -4 -5 -6 2.61 0.44
 4 5 7 68.52 2.46
 -4 5 -7 60.49 2.39
 -4 -5 -7 63.92 2.28
 4 5 8 3.09 0.53
 -4 5 -8 2.79 0.5
 4 -5 8 2.14 0.49
 -4 -5 -8 2.72 0.46
 -4 5 -9 34.56 1.82
 4 -5 9 36.68 2.02
 -4 5 -10 1.48 0.36
 4 -5 10 1.08 0.32
 -4 -6 7 2.45 0.53
 4 6 -7 2.89 0.47
 -4 -6 6 57.14 2.41
 4 6 -6 57.75 2.09
 4 6 -4 226.87 4.31
 -4 6 4 219.05 4.4
 4 -6 -4 227.3 5.21
 -4 -6 4 216.18 4.85
 4 6 -3 0.15 0.12
 -4 -6 3 0.14 0.14
 -4 6 3 0.09 0.09
 4 -6 -3 0.08 0.11
 4 6 -2 307.04 5.37
 -4 -6 2 311.78 5.97
 -4 6 1 6.85 0.73
 4 -6 -1 8.63 0.98
 -4 -6 1 7.82 0.81
 -4 6 0 206 4.57
 4 -6 0 209.9 5.14
 4 6 0 220.95 4.43
 -4 -6 0 213.81 4.67
 4 6 1 10.71 0.86
 -4 6 -1 10.24 0.89
 4 -6 1 11.06 1.05
 -4 -6 -1 10.77 0.91
 -4 6 -2 318.66 5.94
 4 -6 2 331.79 6.59
 -4 6 -3 9.02 0.85
 4 -6 3 9.7 0.96
 -4 -6 -3 10.15 0.86
 4 6 3 9.64 0.81
 -4 6 -4 139.05 3.63
 4 -6 4 140.83 3.96
 -4 -6 -4 147.63 3.54
 4 6 5 3.11 0.48
 -4 6 -5 4 0.58
 4 -6 5 3.82 0.64
 -4 -6 -5 2.94 0.46
 -4 6 -6 55.42 2.25
 4 -6 6 53.22 2.41
 -4 -6 -6 50.99 2.01
 -4 6 -7 1.75 0.41
 4 -6 7 1.19 0.35
 -4 6 -8 33.64 1.76
 4 -6 8 32.65 1.89
 -4 6 -9 0.57 0.24
 4 -6 9 0.33 0.2
 4 7 -5 42.71 1.69
 -4 -7 5 40.41 2.04
 -4 -7 4 0.81 0.29
 4 7 -4 0.95 0.25
 4 7 -3 180.87 3.72
 -4 7 3 171.51 4.05
 4 -7 -3 181.61 4.98
 -4 -7 3 166.04 4.22
 -4 -7 2 0.11 0.13
 4 7 -2 0.23 0.13
 4 -7 -2 0.24 0.18
 -4 7 2 0.44 0.19
 4 7 -1 127.85 3.01
 -4 7 1 120.78 3.4
 4 -7 -1 123.48 4.01
 -4 -7 1 123.35 3.46
 -4 -7 0 0.84 0.28
 4 7 0 1.18 0.27
 -4 7 -1 134.95 3.56
 4 -7 1 132.48 3.96
 -4 -7 -1 139.75 3.62
 4 7 2 2.53 0.41
 -4 7 -2 2.45 0.44
 4 -7 2 2.68 0.53
 -4 -7 -2 2.24 0.42
 4 7 3 97.46 2.73
 -4 7 -3 90.29 2.82
 4 -7 3 89.78 3.16
 4 7 4 -0.03 0.04
 -4 7 -4 0.03 0.07
 4 -7 4 -0.04 0.09
 -4 -7 -4 -0.03 0.07
 4 7 5 50.12 1.95
 -4 7 -5 43.45 1.94
 4 -7 5 44.98 2.15
 -4 -7 -5 43.78 1.94
 4 7 6 4.07 0.56
 -4 7 -6 3.53 0.56
 4 -7 6 3.52 0.61
 -4 -7 -6 3.72 0.55
 4 -7 7 22.7 1.54
 -4 7 -7 22.92 1.43
 -4 7 -8 1.2 0.33
 4 -7 8 1.09 0.33
 -4 -8 5 -0.04 0.06
 4 8 -5 0.03 0.04
 4 8 -4 40.53 1.68
 -4 -8 4 39.11 1.99
 -4 -8 3 0.08 0.1
 4 8 -3 0.37 0.17
 4 8 -2 57.49 2.01
 -4 8 2 59.83 2.35
 4 -8 -2 59.98 2.85
 -4 -8 2 58.05 2.37
 4 8 -1 4.47 0.53
 -4 8 1 4.42 0.63
 4 -8 -1 4.42 0.73
 -4 -8 1 4.1 0.63
 4 8 0 54.62 1.91
 -4 8 0 50.32 2.15
 4 -8 0 52.52 2.51
 -4 -8 0 47.53 2.15
 -4 -8 -1 1.18 0.33
 4 8 1 1.08 0.25
 4 8 2 60.31 1.96
 -4 8 -2 57.07 2.23
 4 -8 2 56.22 2.49
 -4 -8 -2 54.18 2.17
 4 8 3 2.25 0.37
 4 -8 3 2.78 0.53
 -4 -8 -3 2.76 0.47
 4 8 4 43.62 1.68
 -4 -8 -4 36.62 1.74
 -4 8 -5 0.2 0.13
 4 -8 5 0.32 0.21
 4 8 6 30.08 1.41
 -4 8 -6 25.89 1.47
 4 -8 6 26.67 1.64
 -4 -8 -6 25.55 1.47
 -4 -9 6 2.56 0.49
 4 9 -6 3.24 0.45
 -4 -9 4 0.23 0.17
 4 9 -4 0.2 0.12
 4 9 -3 26.31 1.31
 -4 -9 3 28.92 1.69
 4 9 -2 1.59 0.33
 -4 -9 2 1.63 0.4
 4 9 -1 21.74 1.16
 -4 9 1 20.88 1.37
 4 -9 -1 20.38 1.63
 -4 -9 1 20.46 1.38
 -4 -9 0 0.31 0.17
 4 9 0 0.16 0.12
 4 -9 0 0.1 0.15
 -4 9 0 0.18 0.13
 4 9 1 37.47 1.48
 -4 9 -1 34.35 1.74
 4 -9 1 36.36 2.06
 -4 -9 -1 32.82 1.7
 -4 -9 -2 -0.03 0.11
 4 9 2 -0.02 0.08
 4 -9 2 0.04 0.09
 -4 9 -2 -0.03 0.07
 4 9 3 37.09 1.52
 -4 9 -3 35.53 1.69
 4 -9 3 34.53 1.9
 -4 -9 -3 34.57 1.73
 -4 -9 -4 0.16 0.12
 4 9 4 0.02 0.06
 -4 9 -4 0.16 0.14
 4 -9 4 0.24 0.17
 -4 9 -5 28.86 1.52
 4 9 5 32.78 1.45
 4 -9 5 33.57 1.86
 -4 -9 -5 29.84 1.57
 -4 -10 1 0.28 0.17
 4 10 -1 0.26 0.14
 4 10 0 20.36 1.11
 -4 -10 0 19.34 1.3
 -4 10 -1 4.11 0.58
 4 -10 1 4.04 0.69
 -4 -10 -1 3.52 0.56
 -4 10 -2 24.9 1.42
 4 -10 2 23.03 1.56
 -5 0 6 -0.04 0.08
 5 0 -6 0.04 0.12
 5 0 -5 337.28 5.86
 -5 0 5 315.24 5.57
 5 0 -4 -0.02 0.05
 -5 0 4 -0.02 0.07
 -5 0 3 427.51 6.6
 5 0 -3 429.84 6.85
 5 0 -2 0.06 0.09
 -5 0 2 0.03 0.07
 -5 0 1 419.65 6.75
 5 0 -1 441.85 7.08
 5 0 0 0.03 0.09
 -5 0 0 0.03 0.11
 -5 0 -1 138.01 3.39
 5 0 1 132.86 3.46
 5 0 2 -0.03 0.05
 -5 0 -2 -0.03 0.07
 -5 0 -3 322.19 5.88
 5 0 3 311.66 5.98
 5 0 4 -0.03 0.09
 -5 0 -4 0.03 0.07
 -5 0 -5 167.86 3.97
 5 0 5 150.67 4.01
 5 0 6 -0.04 0.08
 -5 0 -6 -0.03 0.07
 -5 0 -7 41.21 1.88
 5 0 7 42.57 2
 5 0 8 0.04 0.1
 -5 0 -8 -0.03 0.1
 -5 0 -9 13.95 1.07
 5 0 9 14.04 1.21
 5 1 -5 0.49 0.19
 5 -1 -5 0.58 0.2
 -5 -1 5 0.42 0.19
 -5 1 5 0.47 0.16
 5 1 -4 281.16 5.03
 -5 -1 4 263.96 4.83
 -5 -1 3 19.43 1.06
 -5 1 3 20.91 1.11
 5 -1 -3 21.39 1.22
 5 1 -3 19.78 1.14
 -5 -1 2 509.22 7.73
 -5 1 2 527.4 7.84
 5 -1 -2 537 8.2
 5 1 -2 529.07 7.99
 -5 -1 1 54.8 1.96
 -5 1 1 52.1 1.92
 5 1 -1 51.67 1.98
 5 -1 -1 54.44 2.09
 -5 -1 0 362.08 6.12
 -5 1 0 351.97 6.06
 5 1 0 357.97 6.25
 -5 1 -1 3.02 0.46
 5 -1 1 3.81 0.55
 -5 -1 -2 237.43 4.72
 -5 1 -2 228.85 4.81
 5 -1 2 235.75 5.05
 5 1 2 232.93 4.88
 -5 1 -3 0.03 0.07
 5 1 3 0.03 0.05
 5 -1 3 0.04 0.09
 -5 -1 -3 0.03 0.07
 -5 -1 -4 307.04 5.74
 -5 1 -4 313.05 5.87
 5 1 4 298.01 5.89
 5 -1 4 298.74 6.03
 -5 -1 -5 8.04 0.79
 -5 1 -5 8.04 0.81
 5 1 5 7.21 0.8
 5 -1 5 6.8 0.8
 5 -1 6 114.34 3.47
 -5 1 -6 121.68 3.35
 5 1 6 118.6 3.47
 -5 1 -7 0.13 0.11
 5 1 7 0.04 0.08
 5 -1 7 0.04 0.08
 -5 -1 -7 0.09 0.1
 -5 -1 -8 38.17 1.77
 5 1 8 41.99 2.01
 5 1 9 0.31 0.19
 5 -1 9 0.47 0.24
 -5 -1 -9 0.19 0.14
 -5 1 -9 0.4 0.18
 -5 1 -10 18.51 1.24
 5 2 -6 0.13 0.11
 -5 -2 6 0.17 0.14
 -5 2 5 119.7 2.86
 5 2 -5 136.18 3.39
 5 -2 -5 131.15 3.23
 -5 -2 5 124.39 3.33
 5 2 -4 0.28 0.15
 -5 -2 4 0.26 0.13
 -5 2 3 221.35 4.32
 5 2 -3 226.41 4.46
 5 -2 -3 229.38 4.7
 -5 -2 3 218.65 4.35
 -5 -2 2 10.52 0.82
 -5 2 2 9.92 0.8
 5 2 -2 10.57 0.85
 5 -2 -2 10.97 0.92
 -5 -2 1 624.37 8.94
 -5 2 1 614.33 9.07
 5 -2 -1 616.89 9.43
 -5 2 0 32.73 1.55
 5 -2 0 33.92 1.77
 -5 -2 -1 389.14 6.57
 5 2 1 376.76 6.63
 -5 -2 -2 6.93 0.73
 -5 2 -2 9.19 0.83
 5 -2 2 9.42 0.92
 5 2 2 9.51 0.87
 -5 -2 -3 318.3 5.83
 5 2 3 302.63 5.86
 -5 2 -3 314.85 5.9
 5 -2 3 315.64 6.2
 -5 2 -4 0.86 0.26
 5 2 4 0.57 0.23
 5 -2 4 0.7 0.27
 -5 -2 -4 0.57 0.21
 -5 -2 -5 235.44 4.87
 5 2 5 231.66 5.01
 -5 2 -6 0.04 0.09
 5 2 6 0.07 0.09
 5 -2 6 0.32 0.2
 -5 -2 -6 0.23 0.14
 -5 -2 -7 117.29 3.27
 -5 2 -7 120.15 3.42
 5 2 7 121.04 3.51
 5 -2 7 127.44 3.86
 -5 2 -8 2.18 0.45
 5 -2 8 1.58 0.41
 -5 -2 -9 29.59 1.57
 -5 2 -9 28.14 1.56
 5 2 9 32.54 1.81
 5 -2 9 29.04 1.77
 -5 2 -10 2.41 0.44
 5 -2 10 2.28 0.49
 5 3 -6 128.4 3.48
 -5 -3 6 116.65 3.72
 5 3 -5 0.03 0.09
 -5 -3 5 0.2 0.12
 5 3 -4 77.04 2.38
 -5 -3 4 76.28 2.46
 -5 3 3 16.48 1.05
 5 -3 -3 17.88 1.23
 -5 3 2 239.01 4.74
 5 -3 -2 253.85 5.26
 -5 3 1 0.12 0.11
 5 3 -1 0.03 0.09
 -5 -3 1 0.11 0.11
 5 -3 -1 0.14 0.12
 -5 -3 0 437.55 7.04
 5 3 0 415.66 7.01
 -5 3 0 421.76 6.99
 5 -3 0 414.31 7.4
 5 3 1 1.08 0.29
 -5 -3 -1 1.25 0.3
 5 -3 1 0.87 0.29
 -5 -3 -2 292.73 5.51
 5 -3 2 290.19 5.94
 5 3 2 300.74 5.65
 -5 -3 -3 24.24 1.35
 5 3 3 23.81 1.4
 -5 3 -3 24.5 1.43
 5 -3 3 23.55 1.49
 -5 -3 -4 230.32 4.72
 -5 3 -4 222.56 4.81
 5 3 4 223.41 4.83
 5 -3 4 220.28 5.02
 -5 -3 -5 5.37 0.65
 -5 3 -5 5.58 0.68
 5 3 5 6.02 0.71
 5 -3 5 4.78 0.7
 -5 -3 -6 145.29 3.65
 -5 3 -6 154.37 3.94
 5 3 6 149.44 3.88
 -5 -3 -7 2.17 0.41
 -5 3 -7 2.46 0.46
 5 3 7 1.92 0.43
 -5 -3 -8 41.42 1.83
 -5 3 -8 39.69 1.89
 5 3 8 43.69 2.06
 5 -3 8 43.16 2.22
 -5 3 -9 1.77 0.4
 5 -3 9 1.69 0.45
 -5 3 -10 13.77 1.1
 5 -3 10 12.82 1.2
 5 4 -6 2.77 0.49
 -5 -4 6 2.91 0.57
 5 4 -5 114.73 2.98
 -5 -4 5 113.33 3.32
 -5 4 4 0.03 0.06
 5 4 -4 -0.03 0.07
 -5 -4 4 0.03 0.07
 5 -4 -4 -0.04 0.08
 5 4 -3 117.42 3.13
 -5 4 3 124.01 3.11
 5 -4 -3 129.82 3.54
 -5 -4 3 120.2 3.23
 5 4 -2 26.07 1.36
 -5 4 2 25.35 1.36
 5 -4 -2 26.69 1.56
 -5 -4 2 26.95 1.39
 5 4 -1 187.88 4.12
 -5 -4 1 191.58 4.18
 5 4 0 3.84 0.54
 -5 4 0 4.18 0.59
 5 -4 0 3.21 0.57
 -5 -4 0 3.69 0.53
 5 4 1 261.03 5.17
 -5 4 -1 252.44 5.21
 5 -4 1 243.38 5.54
 -5 -4 -1 262.55 5.14
 -5 -4 -2 4.79 0.6
 5 4 2 4.46 0.59
 -5 4 -2 4.42 0.61
 5 -4 2 3.84 0.61
 -5 -4 -4 6.03 0.67
 5 4 4 5.9 0.68
 -5 4 -4 6.06 0.73
 5 -4 4 5.36 0.72
 -5 -4 -5 109.8 3.03
 5 4 5 116.19 3.2
 -5 4 -5 116.92 3.39
 5 -4 5 108.48 3.43
 5 4 6 -0.03 0.07
 -5 -4 -6 0.06 0.08
 -5 -4 -7 43.89 1.88
 5 4 7 47.6 2.04
 -5 4 -7 45.74 2.05
 5 -4 7 44.32 2.17
 -5 4 -8 0.57 0.23
 5 4 8 0.82 0.27
 -5 -4 -8 0.72 0.24
 5 -4 8 0.74 0.28
 -5 4 -9 12.52 1.05
 5 -4 9 14.01 1.21
 -5 4 -10 1.51 0.35
 5 -4 10 1.18 0.34
 5 5 -5 4.2 0.54
 -5 -5 5 4.2 0.63
 5 5 -4 156.71 3.51
 -5 -5 4 148.78 3.8
 5 5 -3 1.15 0.28
 -5 5 3 1.46 0.33
 5 -5 -3 1.21 0.36
 -5 -5 3 1.73 0.38
 5 5 -2 147.51 3.57
 -5 5 2 140.05 3.61
 5 -5 -2 149.42 4.19
 -5 -5 2 141.93 3.67
 5 5 -1 0.79 0.24
 -5 -5 1 1.08 0.3
 -5 5 1 0.53 0.22
 5 -5 -1 0.67 0.28
 -5 5 0 141.46 3.69
 5 -5 0 142.14 4.06
 5 5 1 -0.03 0.06
 -5 -5 -1 0.03 0.08
 -5 5 -1 0.1 0.12
 5 -5 1 0.04 0.11
 5 5 2 200.76 4.38
 -5 5 -2 193.08 4.47
 -5 -5 -2 191.4 4.28
 5 5 3 5.82 0.67
 -5 5 -3 4.88 0.63
 5 -5 3 4.57 0.67
 -5 -5 -3 5.7 0.65
 -5 5 -4 95.3 2.98
 5 5 4 99.54 2.91
 5 -5 4 91.11 3.14
 -5 -5 -4 101.16 2.91
 -5 -5 -5 0.24 0.15
 5 5 5 0.51 0.2
 -5 5 -5 0.46 0.21
 5 -5 5 0.36 0.19
 5 5 6 43.76 1.93
 -5 5 -6 43.63 2.01
 5 -5 6 39.05 2.07
 -5 -5 -6 43.1 1.86
 5 5 7 1.96 0.42
 -5 5 -7 2.18 0.44
 5 -5 7 2.09 0.49
 -5 -5 -7 1.89 0.39
 -5 5 -8 22.74 1.44
 5 -5 8 23.26 1.57
 -5 5 -9 0.18 0.14
 5 -5 9 0.16 0.12
 -5 -6 6 0.09 0.09
 5 6 -6 0.06 0.09
 5 6 -5 59.74 2.04
 -5 -6 5 56.41 2.36
 -5 -6 4 0.22 0.16
 5 6 -4 0.29 0.15
 5 6 -3 125.71 3.05
 5 -6 -3 125.7 3.9
 -5 -6 3 119.72 3.42
 5 6 -2 -0.03 0.04
 -5 -6 2 -0.03 0.09
 -5 6 2 0.07 0.1
 5 -6 -2 0.05 0.1
 5 6 -1 83.7 2.6
 -5 6 1 86.91 2.89
 5 -6 -1 89.26 3.32
 -5 -6 1 85.23 2.8
 5 6 0 0.06 0.09
 -5 -6 0 0.07 0.12
 5 6 1 119.46 3.13
 -5 6 -1 123.54 3.59
 5 -6 1 117.71 3.76
 -5 -6 -1 123.87 3.29
 5 6 2 7.52 0.74
 -5 6 -2 7.77 0.84
 5 -6 2 6.11 0.8
 -5 -6 -2 7.02 0.74
 -5 6 -3 74.75 2.62
 5 -6 3 67.23 2.74
 5 6 4 0.52 0.2
 -5 -6 -4 0.26 0.15
 -5 6 -4 0.38 0.18
 5 -6 4 0.32 0.2
 -5 6 -5 28.9 1.58
 5 -6 5 28.67 1.7
 5 6 5 31.79 1.55
 -5 -6 -5 29.49 1.5
 5 6 6 0.06 0.09
 -5 -6 -6 0.03 0.06
 -5 6 -6 0.52 0.22
 5 -6 6 0.52 0.23
 5 6 7 26.71 1.46
 -5 6 -7 25.73 1.52
 5 -6 7 26.14 1.67
 -5 -6 -7 25.09 1.4
 -5 6 -8 0.7 0.26
 5 -6 8 0.98 0.33
 -5 -7 5 -0.04 0.1
 5 7 -5 0.03 0.07
 5 7 -4 37.35 1.56
 -5 -7 4 35.31 1.79
 -5 -7 3 0.04 0.11
 5 7 -3 0.05 0.1
 5 7 -2 47.78 1.77
 -5 7 2 47.02 2.15
 5 -7 -2 46.62 2.51
 -5 -7 2 44.24 2.03
 5 7 -1 2.19 0.38
 -5 7 1 2.13 0.44
 5 -7 -1 2.28 0.54
 -5 -7 1 2.3 0.46
 5 7 0 53.92 1.99
 -5 7 0 61.12 2.43
 5 -7 0 63.42 2.9
 -5 -7 0 55.45 2.22
 5 7 1 0.14 0.11
 -5 -7 -1 0.13 0.12
 -5 7 -1 0.26 0.16
 5 -7 1 0.29 0.19
 5 7 2 57.19 2.09
 -5 7 -2 53.86 2.24
 5 -7 2 55.65 2.57
 -5 -7 -2 54.61 2.19
 5 7 3 0.54 0.2
 -5 -7 -3 0.47 0.2
 -5 7 -3 0.57 0.23
 5 -7 3 0.68 0.29
 5 7 4 19.53 1.17
 -5 -7 -4 16.24 1.11
 5 7 5 0.64 0.22
 -5 -7 -5 0.57 0.21
 -5 7 -5 0.73 0.25
 5 -7 5 0.48 0.22
 5 7 6 19.84 1.13
 -5 7 -6 20.15 1.31
 5 -7 6 19.66 1.4
 -5 -7 -6 21.69 1.34
 5 8 -5 15.7 1.01
 -5 -8 5 14.88 1.23
 -5 -8 4 0.48 0.22
 5 8 -4 0.39 0.17
 5 8 -3 22.09 1.19
 -5 -8 3 21.02 1.39
 -5 -8 2 1.34 0.35
 5 8 -1 26.15 1.3
 5 -8 -1 25.15 1.91
 -5 -8 1 24.14 1.46
 5 8 0 1.37 0.29
 -5 -8 0 0.98 0.3
 -5 8 0 1.1 0.33
 5 -8 0 1.11 0.41
 5 8 1 53.29 1.88
 -5 8 -1 53.15 2.27
 5 -8 1 49.81 2.59
 -5 -8 -1 51.32 2.1
 -5 -8 -2 0.03 0.07
 5 8 2 0.12 0.1
 -5 8 -2 0.04 0.08
 5 -8 2 -0.05 0.07
 -5 8 -3 23.72 1.45
 5 -8 3 23.53 1.64
 5 8 4 0.08 0.09
 -5 -8 -4 0.06 0.08
 5 -8 4 0.04 0.11
 5 8 5 21.93 1.23
 -5 8 -5 20.4 1.32
 5 -8 5 17.94 1.35
 -5 -8 -5 22.66 1.33
 -5 -8 -6 2.16 0.41
 5 9 -4 18.25 1.08
 -5 -9 4 19.55 1.39
 -5 -9 3 0.11 0.15
 5 9 -3 0.08 0.09
 -5 -9 2 16.38 1.25
 -5 -9 1 -0.03 0.1
 5 9 -1 -0.02 0.06
 5 9 0 29.63 1.36
 -5 -9 0 28.05 1.58
 5 9 1 0.05 0.09
 -5 -9 -1 0.17 0.15
 -5 9 -1 0.19 0.14
 5 -9 1 0.31 0.22
 5 9 2 33.42 1.4
 -5 9 -2 35.96 1.8
 5 -9 2 36.57 2.13
 -5 9 -3 0.1 0.12
 5 -9 3 0.09 0.09
 -6 0 4 109.4 2.96
 6 0 -4 111.09 3.08
 6 0 -3 0.03 0.09
 -6 0 3 0.03 0.1
 -6 0 2 129.41 3.32
 6 0 -2 134.21 3.56
 6 0 -1 -0.03 0.07
 -6 0 1 0.06 0.09
 -6 0 0 25.94 1.38
 6 0 0 25.01 1.46
 6 0 1 0.03 0.09
 -6 0 -1 0.03 0.07
 -6 0 -2 115.51 3.23
 6 0 2 112.63 3.33
 6 0 3 -0.04 0.11
 -6 0 -3 -0.03 0.1
 -6 0 -4 154.18 3.86
 6 0 4 147.71 3.91
 6 0 5 0.07 0.1
 -6 0 -5 -0.03 0.12
 -6 0 -6 29.33 1.59
 6 0 6 29.45 1.68
 6 0 7 0.04 0.08
 -6 0 -7 0.03 0.1
 -6 0 -8 21.11 1.32
 6 0 8 22.87 1.48
 6 1 -5 95.56 2.99
 -6 -1 5 85.55 2.77
 6 1 -4 0.72 0.24
 6 -1 -4 1.13 0.31
 -6 -1 4 0.63 0.22
 -6 1 4 0.78 0.24
 -6 1 3 135.65 3.38
 6 1 -3 132.86 3.4
 6 -1 -3 141.3 3.69
 -6 -1 2 10.84 0.87
 6 1 -2 11.64 0.95
 -6 -1 1 122.93 3.23
 -6 1 1 125.85 3.31
 6 1 -1 130.85 3.47
 6 -1 -1 126.62 3.59
 6 1 0 1.3 0.33
 6 -1 0 0.88 0.28
 -6 -1 0 1.19 0.3
 -6 1 0 1.04 0.29
 -6 -1 -1 88.17 2.74
 -6 1 -1 92.29 2.8
 6 1 1 86.99 2.82
 -6 -1 -2 17.91 1.19
 -6 1 -2 19.35 1.25
 6 1 2 17.08 1.21
 6 -1 2 17.73 1.25
 -6 -1 -3 205.33 4.5
 -6 1 -3 212.41 4.62
 6 1 3 206.52 4.67
 6 -1 3 202.88 4.71
 -6 1 -4 0.3 0.17
 6 1 4 0.17 0.15
 6 -1 4 0.7 0.26
 -6 -1 -4 0.45 0.19
 -6 -1 -5 72.57 2.48
 -6 1 -5 70.94 2.5
 6 1 5 68.35 2.52
 6 -1 5 69.3 2.61
 6 1 6 0.04 0.09
 6 -1 6 -0.04 0.1
 -6 -1 -6 0.03 0.07
 -6 1 -6 -0.03 0.09
 -6 -1 -7 32.7 1.63
 -6 1 -7 31.62 1.64
 6 1 7 32.25 1.74
 6 -1 7 29.94 1.71
 6 1 8 0.78 0.27
 6 -1 8 0.85 0.29
 -6 1 -8 0.78 0.26
 -6 1 -9 20.29 1.28
 6 -1 9 18.8 1.38
 6 2 -5 0.03 0.09
 -6 -2 5 0.07 0.09
 -6 2 4 84.12 2.59
 6 2 -4 90.23 2.73
 6 -2 -4 93.67 3.03
 -6 -2 4 82.43 2.6
 6 2 -3 0.52 0.21
 6 -2 -3 0.7 0.26
 -6 -2 3 0.57 0.22
 -6 2 3 0.4 0.17
 -6 -2 2 169.55 3.81
 -6 2 2 163.51 3.88
 6 2 -2 168.01 3.91
 6 -2 -2 170.9 4.23
 -6 -2 1 4.65 0.58
 -6 2 1 5.1 0.62
 6 2 -1 4.57 0.58
 6 -2 -1 4.7 0.65
 -6 -2 0 204.39 4.34
 -6 2 0 202.57 4.4
 6 -2 0 202.59 4.79
 -6 -2 -1 14.35 1.07
 -6 2 -1 15.2 1.1
 6 2 1 14.67 1.1
 6 -2 1 13.62 1.14
 -6 -2 -2 223.95 4.73
 6 2 2 218.83 4.81
 -6 -2 -3 12.19 1
 -6 2 -3 12.41 1.03
 6 2 3 11.75 1
 6 -2 3 11.69 1.06
 -6 -2 -4 116.64 3.28
 -6 2 -4 112.9 3.33
 6 2 4 113.53 3.33
 6 -2 4 111.55 3.45
 6 2 5 0.14 0.12
 -6 -2 -5 0.13 0.12
 -6 -2 -6 43.74 1.92
 -6 2 -6 43.91 1.98
 6 2 6 46 2.05
 6 -2 6 41.47 2.04
 -6 -2 -7 2.11 0.41
 6 2 7 1.96 0.43
 -6 -2 -8 30.32 1.57
 -6 2 -8 27.78 1.52
 6 2 8 30.36 1.67
 6 -2 8 28 1.67
 -6 2 -9 0.94 0.28
 6 2 9 0.54 0.23
 6 -2 9 0.6 0.26
 -6 -2 -9 0.69 0.23
 6 3 -5 78.48 2.69
 -6 -3 5 71.58 2.65
 6 3 -4 0.12 0.11
 -6 -3 4 0.03 0.08
 6 3 -3 87.14 2.69
 -6 -3 3 86.34 2.62
 -6 3 2 1.19 0.3
 6 3 -2 1.1 0.28
 -6 -3 2 1.06 0.28
 6 -3 -2 1.11 0.33
 -6 -3 1 155.45 3.76
 -6 3 1 162.74 3.93
 6 3 -1 160.2 3.87
 -6 3 0 1.04 0.29
 6 -3 0 0.96 0.33
 -6 -3 -1 176.5 4.05
 -6 3 -1 181.69 4.27
 6 -3 1 190.16 4.79
 -6 -3 -2 7.39 0.75
 -6 3 -2 8.12 0.84
 6 3 2 6.59 0.73
 -6 -3 -3 98.33 2.86
 -6 3 -3 95.1 2.99
 6 3 3 96.13 2.93
 6 -3 3 94.3 3.26
 -6 3 -4 1.07 0.31
 6 3 4 1.21 0.32
 -6 -3 -4 1.13 0.31
 6 -3 4 1.01 0.32
 -6 -3 -5 37.02 1.72
 -6 3 -5 38.52 1.86
 6 3 5 36.36 1.78
 6 -3 5 37.08 1.97
 -6 3 -6 0.66 0.24
 6 3 6 0.76 0.27
 -6 -3 -6 0.81 0.25
 6 -3 6 0.86 0.31
 -6 3 -7 25.33 1.49
 6 -3 7 25.88 1.66
 6 3 8 1.17 0.32
 -6 -3 -8 1.16 0.31
 6 4 -4 71.27 2.42
 -6 -4 4 70.12 2.48
 -6 4 3 0.12 0.11
 6 4 -3 0.11 0.11
 -6 -4 3 0.18 0.13
 6 -4 -3 0.12 0.15
 6 4 -2 87.54 2.61
 -6 4 2 79.68 2.61
 6 -4 -2 91.04 3.32
 -6 -4 2 81.52 2.56
 -6 4 1 0.03 0.09
 6 4 -1 -0.03 0.07
 -6 -4 1 0.09 0.1
 6 -4 -1 0.13 0.13
 6 4 0 93.38 2.83
 -6 4 0 87.48 2.84
 6 -4 0 88.8 3.17
 -6 -4 0 93.26 2.82
 -6 4 -1 0.07 0.11
 6 4 1 0.16 0.15
 -6 -4 -1 0.03 0.08
 6 -4 1 0.04 0.1
 -6 -4 -2 75.98 2.53
 6 4 2 72.19 2.49
 -6 4 -2 72.15 2.57
 6 -4 2 71.71 2.8
 -6 -4 -3 2.7 0.46
 6 4 3 2.63 0.46
 -6 4 -3 2.74 0.49
 6 -4 3 2.13 0.47
 -6 -4 -4 35.55 1.67
 6 4 4 35.66 1.72
 -6 4 -4 38.55 1.87
 6 -4 4 34.58 1.85
 -6 4 -5 1.46 0.36
 -6 -4 -5 1.16 0.3
 6 -4 5 1.16 0.35
 -6 4 -6 25.7 1.49
 6 -4 6 22.9 1.51
 -6 4 -7 0.64 0.23
 6 4 7 0.82 0.26
 -6 -4 -7 0.72 0.24
 6 -4 7 1.03 0.34
 -6 -4 -8 8.65 0.81
 -6 4 -8 10.56 0.95
 6 4 8 9.93 0.93
 6 -4 8 9.82 1.01
 6 5 -5 31.92 1.52
 -6 -5 5 28.16 1.66
 6 5 -4 0.52 0.2
 -6 -5 4 0.64 0.24
 6 5 -3 65.51 2.25
 -6 -5 3 60.9 2.28
 -6 5 2 1.92 0.39
 6 5 -2 0.86 0.25
 -6 -5 2 0.84 0.26
 6 -5 -2 2.3 0.5
 6 5 -1 55.49 2.08
 -6 -5 1 60.54 2.19
 6 5 0 0.83 0.25
 -6 5 0 0.75 0.26
 -6 -5 0 0.86 0.26
 6 -5 0 0.5 0.25
 -6 5 -1 56.25 2.31
 6 -5 1 53.56 2.48
 6 5 2 0.03 0.05
 -6 5 -2 -0.04 0.06
 -6 -5 -2 -0.03 0.08
 6 -5 2 0.04 0.06
 6 5 3 47.23 1.95
 -6 5 -3 47.81 2.09
 -6 -5 -3 47.21 1.96
 6 5 4 2.56 0.45
 -6 5 -4 2.3 0.46
 6 -5 4 2.14 0.48
 -6 -5 -4 2.57 0.45
 -6 5 -5 40.23 1.87
 6 -5 5 36.16 1.95
 6 5 6 0.1 0.12
 -6 5 -6 0.14 0.13
 -6 -5 -6 0.21 0.14
 6 -5 6 0.31 0.19
 6 5 7 20.31 1.32
 -6 5 -7 21.05 1.35
 6 -5 7 18.39 1.34
 -6 -5 -7 18.76 1.19
 6 6 -5 0.03 0.08
 6 6 -4 18.76 1.09
 -6 -6 4 17.7 1.23
 -6 -6 3 0.44 0.19
 6 6 -3 0.1 0.1
 6 6 -2 36.18 1.64
 -6 -6 2 37.43 1.78
 6 6 -1 1.91 0.39
 -6 -6 1 1.28 0.34
 -6 6 1 1.57 0.38
 6 -6 -1 2.03 0.51
 -6 6 0 47.57 2.17
 6 -6 0 43.97 2.36
 -6 -6 0 46.51 2.05
 6 6 1 0.93 0.26
 -6 -6 -1 0.93 0.27
 -6 6 -1 0.9 0.3
 6 -6 1 1.16 0.39
 6 6 2 37.59 1.69
 -6 6 -2 37.53 1.89
 6 -6 2 34.69 2.05
 -6 -6 -2 37.27 1.72
 6 6 3 0.63 0.22
 -6 -6 -3 0.56 0.22
 -6 6 -3 0.56 0.22
 6 -6 3 0.56 0.26
 6 6 4 35.29 1.61
 -6 6 -4 35.86 1.79
 6 -6 4 31.45 1.84
 -6 -6 -4 34.12 1.59
 6 6 5 0.29 0.15
 -6 -6 -5 0.26 0.15
 6 6 6 29.76 1.52
 -6 6 -6 28.41 1.56
 -6 -6 -6 30.17 1.49
 6 7 -4 0.07 0.09
 6 7 -3 12.99 0.89
 -6 -7 3 12.34 1.01
 -6 -7 2 -0.03 0.07
 6 7 -2 -0.02 0.07
 -6 -7 1 25.17 1.46
 6 7 0 0.45 0.19
 -6 -7 0 0.17 0.13
 -6 7 0 0.36 0.2
 6 -7 0 0.16 0.16
 6 7 1 33.77 1.58
 -6 7 -1 29.45 1.71
 6 -7 1 30.36 1.97
 -6 -7 -1 31.42 1.62
 6 7 2 3 0.47
 -6 7 -2 3.12 0.53
 6 -7 2 2.6 0.56
 -6 -7 -2 3.26 0.51
 -6 7 -3 15.9 1.18
 6 -7 3 13.58 1.23
 6 7 4 0.81 0.25
 -6 -7 -4 1.08 0.29
 -6 7 -4 0.87 0.28
 6 -7 4 1.57 0.4
 6 7 5 18.91 1.13
 -6 -7 -5 17.57 1.12
 6 8 -4 10.79 0.81
 -6 -8 4 11.5 1.03
 -6 -8 3 0.07 0.09
 6 8 -3 0.12 0.11
 6 8 -2 14.31 0.95
 -6 -8 2 13.84 1.11
 -6 -8 1 0.07 0.09
 6 8 0 25.9 1.28
 -6 -8 0 24.93 1.44
 -6 -8 -1 0.71 0.24
 -6 8 -1 0.34 0.2
 6 -8 1 0.71 0.31
 6 8 1 0.57 0.19
 6 8 2 14.95 0.96
 -6 8 -2 13.89 1.13
 6 -8 2 13.71 1.27
 -6 -8 -2 14.16 1.04
 -7 0 3 42.47 1.84
 7 0 -3 46.45 2.09
 -7 0 1 57.54 2.19
 7 0 -1 54.7 2.28
 7 0 0 -0.04 0.08
 -7 0 0 0.03 0.1
 -7 0 -1 56.61 2.16
 7 0 1 54.26 2.25
 7 0 2 0.04 0.09
 -7 0 -2 -0.03 0.07
 -7 0 -3 60.48 2.26
 7 0 3 59.45 2.37
 7 0 4 0.15 0.14
 -7 0 -4 0.1 0.11
 7 0 6 0.04 0.08
 -7 0 -6 0.03 0.09
 -7 0 -7 19.05 1.22
 7 0 7 19.19 1.3
 7 1 -3 0.62 0.25
 7 -1 -3 1.17 0.34
 -7 -1 3 0.86 0.26
 -7 1 3 1.04 0.3
 -7 -1 2 48.82 1.97
 -7 1 2 51.46 2.09
 7 1 -2 48.21 2.05
 7 1 -1 0.03 0.05
 7 -1 -1 -0.04 0.08
 -7 -1 1 -0.03 0.05
 -7 1 1 -0.03 0.12
 -7 -1 0 66.56 2.35
 -7 1 0 60.67 2.27
 7 1 0 69.01 2.51
 7 -1 0 66.19 2.55
 7 1 1 0.56 0.23
 7 -1 1 0.49 0.21
 -7 -1 -1 0.56 0.21
 -7 1 -1 0.6 0.23
 -7 1 -2 82.97 2.73
 7 -1 2 82.15 2.84
 7 1 3 0.21 0.14
 7 -1 3 0.41 0.22
 -7 -1 -3 0.4 0.19
 -7 1 -3 0.58 0.22
 -7 -1 -4 39.48 1.81
 -7 1 -4 37.11 1.78
 7 1 4 37.96 1.84
 7 1 5 -0.03 0.11
 7 -1 5 0.07 0.1
 -7 -1 -5 0.03 0.07
 -7 1 -5 0.03 0.07
 -7 -1 -6 22.43 1.33
 -7 1 -6 22.17 1.34
 7 1 6 20.96 1.36
 7 -1 6 19.6 1.35
 7 1 7 0.1 0.12
 -7 -1 -7 0.09 0.09
 -7 1 -7 0.03 0.09
 7 2 -3 32.28 1.66
 -7 -2 3 32.41 1.59
 7 2 -2 1.22 0.32
 7 -2 -2 1.77 0.42
 -7 -2 2 1.29 0.31
 -7 2 2 1.28 0.32
 -7 -2 1 52.22 2
 -7 2 1 52.43 2.1
 7 2 -1 46.66 2
 7 -2 -1 52.77 2.33
 7 2 0 1.21 0.32
 7 -2 0 0.53 0.23
 -7 -2 0 0.92 0.27
 -7 2 0 1.02 0.29
 -7 -2 -1 81.68 2.59
 -7 2 -1 82.08 2.69
 7 2 1 80.9 2.69
 7 -2 1 81.04 2.87
 7 2 2 0.95 0.29
 -7 -2 -2 0.81 0.26
 -7 -2 -3 45.83 1.96
 -7 2 -3 48.51 2.04
 7 2 3 43.47 1.98
 7 -2 3 45.58 2.13
 -7 2 -4 0.34 0.18
 7 2 4 0.27 0.17
 7 -2 4 0.22 0.18
 -7 -2 -4 0.33 0.16
 -7 -2 -5 16.31 1.13
 -7 2 -5 16.57 1.16
 7 2 5 15.16 1.15
 7 -2 5 13.76 1.13
 7 -2 6 0.04 0.09
 -7 -2 -6 -0.03 0.08
 -7 2 -6 0.07 0.09
 -7 -2 -7 21.74 1.29
 -7 2 -7 19.39 1.24
 7 2 7 19.45 1.3
 7 3 -4 32.13 1.64
 7 3 -3 -0.03 0.09
 -7 -3 3 0.03 0.06
 -7 3 2 32.54 1.64
 7 3 -2 29.15 1.53
 7 -3 -2 31.39 1.81
 -7 -3 2 29.07 1.5
 -7 3 1 1.68 0.37
 7 3 -1 1.53 0.35
 -7 -3 1 1.55 0.34
 7 -3 -1 1.34 0.38
 -7 3 0 36.84 1.75
 7 -3 0 36.71 1.95
 -7 3 -1 0.85 0.27
 7 3 1 0.67 0.23
 7 -3 1 0.24 0.17
 -7 -3 -2 41.24 1.82
 -7 3 -2 37.07 1.8
 7 3 2 34.57 1.64
 7 -3 2 36.24 1.95
 -7 -3 -3 1.8 0.37
 -7 3 -3 1.86 0.4
 7 3 3 1.52 0.36
 7 -3 3 1.67 0.4
 -7 -3 -4 11 0.91
 -7 3 -4 10.79 0.95
 7 3 4 11.07 0.94
 7 -3 4 10.15 0.99
 -7 3 -5 0.17 0.13
 7 3 5 0.06 0.09
 7 -3 5 0.04 0.08
 -7 -3 -5 0.12 0.12
 -7 -3 -6 12.39 0.96
 -7 3 -6 11.01 0.95
 7 3 6 12.62 1.02
 7 -3 6 10.77 0.99
 7 3 7 0.89 0.27
 -7 -3 -7 0.67 0.22
 7 4 -3 30.18 1.51
 -7 -4 3 28.49 1.49
 7 4 -2 0.15 0.13
 -7 -4 2 0.06 0.1
 -7 4 1 21.81 1.36
 7 4 -1 22.6 1.34
 7 -4 -1 23.12 1.6
 -7 -4 1 24.42 1.38
 -7 4 0 0.29 0.16
 7 4 0 0.34 0.16
 -7 -4 0 0.19 0.14
 7 -4 0 0.44 0.23
 -7 4 -1 22.1 1.4
 7 4 1 21.26 1.31
 7 -4 1 21.08 1.57
 -7 -4 -1 20.11 1.26
 -7 4 -2 0.72 0.26
 7 4 2 1.01 0.29
 -7 -4 -2 1.22 0.31
 7 -4 2 0.9 0.34
 -7 -4 -3 15.18 1.07
 7 4 3 13.94 1.05
 -7 4 -4 0.52 0.24
 7 4 4 0.59 0.23
 -7 -4 -4 0.4 0.18
 7 -4 4 0.73 0.29
 -7 -4 -5 12.45 0.97
 -7 4 -5 12.33 1.01
 7 4 5 11.63 0.95
 7 -4 5 11.96 1.12
 -7 -4 -6 3.18 0.49
 -7 4 -6 3.71 0.56
 7 4 6 4 0.55
 7 -4 6 3.97 0.63
 7 5 -3 2.16 0.4
 -7 -5 3 1.6 0.37
 7 5 -2 29.39 1.43
 -7 -5 2 30.24 1.53
 7 5 -1 0.26 0.15
 -7 -5 1 0.44 0.19
 7 5 0 22.26 1.29
 -7 5 0 23.58 1.47
 7 -5 0 24.66 1.73
 -7 -5 0 21.47 1.28
 -7 5 -1 -0.04 0.08
 7 5 1 -0.03 0.08
 -7 -5 -1 -0.03 0.1
 7 -5 1 0.05 0.1
 7 5 2 21.7 1.3
 -7 5 -2 20.28 1.34
 7 -5 2 21.28 1.55
 -7 -5 -2 19.78 1.24
 -7 5 -3 0.11 0.11
 7 5 3 0.36 0.18
 -7 -5 -3 0.33 0.16
 7 -5 3 0.04 0.11
 7 5 4 26.85 1.42
 -7 5 -4 23.63 1.41
 7 -5 4 27.18 1.7
 -7 -5 -4 27.34 1.43
 -7 5 -5 1.65 0.37
 7 5 5 1.75 0.37
 7 -5 5 1.82 0.41
 -7 -5 -5 2.37 0.41
 7 6 -3 15.33 0.98
 -7 -6 3 14.45 1.1
 7 6 -2 0.33 0.17
 -7 -6 2 0.41 0.19
 7 6 -1 21.81 1.26
 -7 -6 1 22.63 1.33
 7 6 0 0.03 0.08
 -7 -6 0 0.06 0.09
 7 6 1 20.83 1.21
 -7 6 -1 22.19 1.44
 7 -6 1 18.18 1.49
 -7 -6 -1 19.57 1.21
 7 6 2 0.4 0.18
 -7 6 -2 0.41 0.21
 -7 -6 -2 0.32 0.16
 7 -6 2 0.7 0.29
 7 6 3 22.22 1.25
 -7 6 -3 22.48 1.43
 7 -6 3 22.08 1.51
 -7 -6 -3 22.1 1.25
 -7 -7 3 0.59 0.2
 7 7 -3 0.38 0.16
 7 7 -2 9.93 0.78
 -7 -7 2 9.6 0.87
 7 7 -1 0.22 0.12
 -7 -7 1 0.03 0.07
 8 0 -1 -0.04 0.1
 -8 0 1 -0.03 0.1
 -8 0 0 28.72 1.55
 8 0 0 31.17 1.71
 -8 0 -2 10.51 0.91
 8 0 2 9.53 0.92
 -8 0 -3 -0.06 0.12
 -8 0 -4 6.96 0.74
 8 0 4 6.39 0.74
 8 1 -2 0.25 0.16
 -8 -1 2 0.09 0.12
 -8 -1 1 30.37 1.55
 -8 1 1 28.72 1.55
 8 1 -1 28.22 1.58
 8 -1 -1 29.07 1.69
 8 1 0 1.53 0.36
 8 -1 0 1.33 0.35
 -8 -1 0 1.38 0.34
 -8 1 0 1.26 0.31
 -8 -1 -1 21.3 1.3
 8 1 1 20.53 1.33
 8 1 2 0.65 0.24
 -8 -1 -2 0.51 0.21
 -8 1 -2 0.42 0.18
 -8 -1 -3 10.22 0.89
 -8 1 -3 10.18 0.89
 8 1 3 10.93 0.96
 8 -1 3 10.31 0.96
 8 1 4 -0.03 0.1
 8 -1 4 -0.03 0.07
 -8 -1 -4 0.1 0.11
 -8 1 -4 0.06 0.08
 -8 -2 2 11.7 0.96
 8 2 -2 11.77 1.01
 8 2 -1 0.07 0.09
 -8 2 0 16.21 1.16
 8 -2 0 17.65 1.33
 -8 -2 -1 2.3 0.41
 8 2 1 1.63 0.36
 8 -2 1 1.99 0.44
 -8 2 -1 1.69 0.38
 -8 -2 -2 17.9 1.15
 -8 2 -2 18.64 1.25
 8 2 2 17.65 1.19
 8 -2 2 17.64 1.3
 8 2 3 0.06 0.1
 -8 -2 -3 0.09 0.13
 -8 -2 -4 10.34 0.88
 8 2 4 11.15 0.95
 8 -2 4 10.66 0.98
 8 3 -2 0.16 0.15
 8 3 -1 8.49 0.82
 -8 -3 1 8.23 0.79
 8 3 0 -0.03 0.07
 -8 -3 0 -0.03 0.1
 -8 -3 -1 14.02 1.01
 -8 3 -1 13.06 1.05
 8 3 1 14.29 1.06
 8 -3 1 12.59 1.13
 8 -3 2 0.08 0.1
 -8 -3 -2 0.12 0.1
 -8 3 -2 0.03 0.1
 -8 -3 -3 12.56 0.94
 -8 3 -3 11.73 0.98
 8 3 3 11.19 0.92
 8 -3 3 11.28 1.03
 8 4 -2 8.63 0.8
 -8 -4 2 7.92 0.76
 8 4 -1 0.15 0.11
 -8 -4 1 0.23 0.15
 -8 4 -1 0.17 0.13
 8 4 1 0.21 0.13
 -8 -4 -1 0.12 0.1
 8 -4 1 0.25 0.16
 -8 4 -2 9.02 0.87
 8 4 2 9.78 0.85
 8 -4 2 8.66 0.94
 -8 -4 -2 10.34 0.86
 -8 4 -3 0.42 0.18
 8 -4 3 0.23 0.18
 8 5 -2 0.05 0.07
 -8 -5 2 -0.03 0.1
 8 5 -1 9.27 0.8
 -8 -5 1 8.84 0.8
 8 5 0 0.08 0.1
 -8 -5 0 0.03 0.04

_iucr_refine_instructions_details
;

    crystal_2_(test2)_290k.res created by SHELXL-2014/7

TITL crystal_2_(test2)_290k_a.res in P2(1)/n
REM Old TITL Crystal_2_(test2)_290K in P2(1)/n
REM SHELXT solution in P2(1)/n
REM R1 0.167, Rweak 0.015, Alpha 0.037, Orientation as input
REM Formula found by SHELXT: C10 Fe
CELL 0.69804 5.9285 7.612 9.041 90 93.156 90
ZERR 2 0.0001 0.0001 0.0001 0 0.001 0
LATT 1
SYMM 0.5-X,0.5+Y,0.5-Z
SFAC C H Fe
DISP C 0.003 0.002 11.122
DISP Fe 0.355 0.822 3331.634
DISP H -0 0 0.623
UNIT 20 20 2
 
L.S. 4
PLAN  20
BOND $H
list 4
fmap 2
ACTA
REM <olex2.extras>
REM <HklSrc "%./Crystal_2_(test2)_290K.hkl">
REM </olex2.extras>
 
WGHT    0.095000    0.178000
FVAR       1.64088
FE01  3    0.500000    0.500000    0.500000    10.50000    0.05246    0.03873 =
         0.04738   -0.00678   -0.00164   -0.00145
C002  1    0.755352    0.674445    0.543085    11.00000    0.07543    0.07476 =
         0.08273   -0.01978    0.00187   -0.02382
AFIX  43
H002  2    0.880187    0.690066    0.486537    11.00000   -1.20000
AFIX   0
C003  1    0.747060    0.565407    0.656705    11.00000    0.08679    0.07515 =
         0.06855   -0.01779   -0.02477    0.00503
AFIX  43
H003  2    0.866789    0.494179    0.690004    11.00000   -1.20000
AFIX   0
C004  1    0.550959    0.569164    0.717007    11.00000    0.14524    0.08268 =
         0.05419   -0.02014    0.01357   -0.03877
AFIX  43
H004  2    0.509652    0.503724    0.798063    11.00000   -1.20000
AFIX   0
C005  1    0.554584    0.760639    0.520791    11.00000    0.14449    0.03905 =
         0.08250   -0.00873   -0.03977    0.00312
AFIX  13
H005  2    0.518242    0.850695    0.445762    11.00000   -1.20000
AFIX   0
C006  1    0.407611    0.697187    0.631796    11.00000    0.05926    0.13948 =
         0.18724   -0.12772   -0.00129    0.00858
AFIX  13
H006  2    0.254662    0.736667    0.651100    11.00000   -1.20000
AFIX   0
HKLF 4
 
REM  crystal_2_(test2)_290k_a.res in P2(1)/n
REM R1 =  0.0527 for    1046 Fo > 4sig(Fo)  and  0.0541 for all    1126 data
REM     52 parameters refined using      0 restraints
 
END  
     
WGHT      0.0946      0.1804 

REM Highest difference peak  0.599,  deepest hole -0.670,  1-sigma level  0.107
Q1    1   0.4020  0.7405  0.5484  11.00000  0.05    0.60
Q2    1   0.4300  0.6086  0.6615  11.00000  0.05    0.53
Q3    1   0.6559  0.7201  0.5425  11.00000  0.05    0.38
Q4    1   0.3724  0.6788  0.6763  11.00000  0.05    0.35
Q5    1   0.5895  0.7576  0.4605  11.00000  0.05    0.33
Q6    1   0.5947  0.8478  0.3845  11.00000  0.05    0.23
Q7    1   0.8962  0.5434  0.8368  11.00000  0.05    0.22
Q8    1   0.3036  0.8375  0.5408  11.00000  0.05    0.22
Q9    1   0.6013  0.9892  0.4579  11.00000  0.05    0.19
Q10   1   0.6964  0.8612  0.4625  11.00000  0.05    0.19
Q11   1   0.8865  0.4476  0.8254  11.00000  0.05    0.18
Q12   1   0.6356  0.5508  0.6863  11.00000  0.05    0.18
Q13   1   0.7397  0.4602  0.9101  11.00000  0.05    0.17
Q14   1   0.2876  0.5876  0.7481  11.00000  0.05    0.16
Q15   1   0.8473  0.8811  0.5136  11.00000  0.05    0.16
Q16   1   0.8116  0.7976  0.7243  11.00000  0.05    0.15
Q17   1   1.1234  0.5167  0.7327  11.00000  0.05    0.15
Q18   1   0.5409  0.5787  0.7610  11.00000  0.05    0.14
Q19   1   0.6360  0.8267  0.6568  11.00000  0.05    0.14
Q20   1   0.6092  0.9586  0.3606  11.00000  0.05    0.13

  REM The information below was added by Olex2.
  REM
  REM R1 = 0.0527 for 1046 Fo > 4sig(Fo) and 0.0541 for all 3478 data
  REM n/a parameters refined using n/a restraints
  REM Highest difference peak 0.60, deepest hole -0.67
  REM Mean Shift 0, Max Shift 0.000.

  REM +++ Tabular Listing of Refinement Information +++
  REM R1_all = 0.0541
  REM R1_gt = 0.0527
  REM wR_ref = 0.1629
  REM GOOF = 1.134
  REM Shift_max = 0.000
  REM Shift_mean = 0
  REM Reflections_all = 3478
  REM Reflections_gt = 1046
  REM Parameters = n/a
  REM Hole = -0.67
  REM Peak = 0.60
  REM Flack = n/a

  
;
_olex2_submission_special_instructions 'No special instructions were received'
_oxdiff_exptl_absorpt_empirical_details
;
Empirical correction (ABSPACK) includes:
- Absorption correction using spherical harmonics
- Frame scaling
;
_oxdiff_exptl_absorpt_empirical_full_max 2.126
_oxdiff_exptl_absorpt_empirical_full_min 0.620
